# LAMMPS data file written by OVITO Basic 3.10.6

13548 atoms
6 atom types

0.0 63.1593 xlo xhi
0.0 36.4134 ylo yhi
0.0 81.1454 zlo zhi

Atom Type Labels

1 C
2 H
3 I
4 N
5 O
6 Pb

Masses

1 12.0107  # C
2 1.00794  # H
3 126.90447  # I
4 14.0067  # N
5 15.9994  # O
6 207.2  # Pb

Atoms  # atomic

1 2 4.140548 33.086906 13.349385
2 2 4.414691 32.057644 12.133918
3 5 4.450673 33.029461 12.414637
4 2 24.565354 32.475128 12.846718
5 2 23.896121 32.091007 14.266744
6 5 24.298773 31.715768 13.417277
7 2 29.776299 6.023334 2.24578
8 2 31.029454 6.814744 2.890115
9 5 30.190395 6.914499 2.33284
10 2 60.191807 13.688026 5.330517
11 2 59.852769 14.917555 4.337941
12 5 59.607298 13.967585 4.58659
13 2 36.027755 34.013451 13.382014
14 2 37.038039 35.214081 13.768938
15 5 36.279635 34.634582 14.105881
16 2 17.544209 33.904465 16.332556
17 2 16.120112 34.09724 15.593177
18 5 16.894615 34.581939 16.028766
19 2 42.405694 28.914001 6.571424
20 2 40.842748 29.187476 6.264329
21 5 41.763492 29.115363 5.850133
22 2 21.467647 23.316287 7.920875
23 2 21.710871 22.743491 6.429352
24 5 21.583695 22.486506 7.40008
25 2 59.60591 25.481411 12.690056
26 2 58.020632 25.575571 12.989926
27 5 58.942612 25.755188 13.367043
28 2 36.312861 24.902071 3.872081
29 2 36.649606 24.933876 5.452425
30 5 36.831796 25.379458 4.562037
31 2 13.067142 23.478434 3.305297
32 2 13.285264 22.292544 4.381394
33 5 12.678167 22.639794 3.649699
34 2 44.249551 4.926566 4.37589
35 2 45.636032 4.106864 4.243021
36 5 45.156853 4.961835 3.990157
37 2 49.252671 9.859927 4.982807
38 2 50.272435 10.935788 4.338989
39 5 49.715699 10.713916 5.154676
40 2 9.299955 6.531577 5.52341
41 2 10.140507 5.203312 5.899014
42 5 9.210105 5.591714 5.809444
43 2 3.750617 4.659162 6.549697
44 2 3.980096 4.265858 4.999037
45 5 3.564278 3.966818 5.872076
46 2 45.351615 11.093222 9.557189
47 2 45.091304 9.510022 9.751127
48 5 45.213936 10.247327 9.068581
49 2 6.504673 8.344557 7.639858
50 2 7.104521 7.238868 6.6252
51 5 6.256871 7.69157 6.943127
52 2 62.074651 17.039863 6.951717
53 2 60.704893 16.335174 7.440668
54 5 61.092411 17.072806 6.865987
55 2 36.365275 4.709085 2.988529
56 2 37.613605 3.715929 2.729281
57 5 37.170415 4.322585 3.407573
58 2 51.217796 14.421736 11.633113
59 2 50.122152 15.20022 12.530566
60 5 50.954018 15.312539 11.964959
61 2 13.161906 22.146668 12.880169
62 2 11.865364 21.617568 12.073368
63 5 12.183952 22.031675 12.940284
64 2 61.434881 29.224806 11.555004
65 2 60.938355 29.648002 10.076402
66 5 60.64855 29.520452 11.037792
67 2 46.573804 35.331396 10.897274
68 2 45.393106 35.40856 11.998135
69 5 45.758661 34.877504 11.21783
70 2 51.289486 5.001882 7.973351
71 2 52.12094 5.180089 9.347695
72 5 51.246841 5.386364 8.880867
73 2 33.909012 22.177833 12.678761
74 2 34.800275 21.46117 11.53686
75 5 33.899871 21.46271 11.999242
76 2 3.761433 21.012126 6.231402
77 2 2.343522 20.455993 6.7719
78 5 3.348423 20.359017 6.844673
79 2 24.09478 17.702378 14.151858
80 2 24.210184 16.883986 15.540675
81 5 23.695758 16.965741 14.672799
82 2 46.88563 26.445332 16.505072
83 2 45.386382 26.636804 15.932806
84 5 46.169319 27.109382 16.366634
85 2 27.540541 6.416271 4.99516
86 2 27.141536 5.729072 6.402444
87 5 27.156319 5.602007 5.39837
88 2 61.650472 11.522825 4.394787
89 2 61.945985 12.415944 5.708905
90 5 62.165255 11.548318 5.235964
91 2 15.254518 12.212856 12.106234
92 2 15.767106 12.059885 13.631275
93 5 15.494315 12.722354 12.916259
94 2 36.625645 17.284578 10.287496
95 2 36.45977 15.71072 10.615141
96 5 37.054482 16.520159 10.740258
97 2 29.189561 33.073914 11.260078
98 2 29.765585 32.089064 12.4047
99 5 28.923631 32.48197 12.003122
100 2 33.139196 2.796291 15.014694
101 2 33.379319 2.176919 16.487995
102 5 33.836674 2.485973 15.639561
103 2 16.163589 33.41083 3.167601
104 2 15.093981 33.989214 4.23217
105 5 15.313374 33.209212 3.625548
106 2 55.142337 12.087753 8.968008
107 2 54.508272 11.106096 7.851672
108 5 54.515433 11.33737 8.837059
109 2 47.48683 34.960537 5.567731
110 2 49.049471 34.564174 5.453957
111 5 48.197986 34.415582 5.980664
112 2 45.522015 2.181438 11.798163
113 2 45.032994 2.877045 10.423796
114 5 45.160204 3.016863 11.418178
115 2 39.237165 35.057113 7.310235
116 2 39.058813 33.878774 6.218629
117 5 38.826019 34.173253 7.158637
118 2 41.816943 13.921112 16.948493
119 2 42.373623 14.861378 18.139251
120 5 41.666553 14.774396 17.420214
121 2 22.150892 12.875147 11.437964
122 2 22.335494 11.269593 11.441431
123 5 21.901643 12.048042 10.961517
124 2 44.222418 16.684119 13.496073
125 2 44.500616 15.173693 12.992969
126 5 43.814228 15.916703 13.029507
127 2 53.044741 18.503745 11.603176
128 2 52.762171 18.014653 10.088963
129 5 52.332255 18.222758 10.981371
130 2 58.965167 11.217883 5.165509
131 2 58.922458 11.839819 3.674446
132 5 59.468495 11.773325 4.524123
133 2 17.458028 32.995398 7.599672
134 2 18.752128 32.464767 8.409382
135 5 18.38963 32.689408 7.491418
136 2 26.049612 31.03064 1.01381
137 2 25.17319 30.174988 2.068153
138 5 25.640968 30.146595 1.170988
139 2 41.003524 34.284451 3.720303
140 2 41.468189 35.314705 4.875534
141 5 41.686294 34.440047 4.415174
142 2 48.053293 34.508625 3.490228
143 2 47.578693 33.013146 3.102684
144 5 47.857552 33.617431 3.865314
145 2 55.805065 19.128926 17.974195
146 2 57.010329 19.663059 17.039351
147 5 56.699232 19.545158 17.995303
148 2 18.984028 26.317606 8.521109
149 2 19.859058 26.227664 9.876885
150 5 19.899227 26.189027 8.866231
151 2 0.999661 27.428951 2.626613
152 2 1.81057 27.150627 3.996598
153 5 1.804931 27.683895 3.136295
154 2 12.226441 35.189589 6.16029
155 2 11.286796 34.341785 5.155208
156 5 11.997866 34.274117 5.872373
157 2 17.475085 6.858977 13.545117
158 2 18.222379 6.790804 12.113753
159 5 18.067604 6.302087 12.986524
160 2 46.746587 18.281526 9.199266
161 2 47.206722 18.563371 7.67587
162 5 47.485141 18.152581 8.558062
163 2 20.694548 31.955271 7.49525
164 2 21.725163 32.5028 8.613258
165 5 20.907713 32.733558 8.062754
166 2 20.439812 35.002841 17.340729
167 2 20.659186 35.413598 15.793134
168 5 19.967563 35.279213 16.519857
169 2 36.759847 3.35828 15.153678
170 2 36.154011 2.167666 16.063237
171 5 36.052528 2.67161 15.191303
172 2 29.607392 31.905941 8.371099
173 2 29.718918 31.420976 9.908716
174 5 29.929435 32.17283 9.264569
175 2 57.423949 29.511398 18.57804
176 2 57.234579 29.984269 17.044277
177 5 57.043799 30.222294 18.009407
178 2 27.135806 32.009084 4.755849
179 2 28.553812 31.874407 3.992293
180 5 27.897588 31.401696 4.600931
181 2 12.751746 28.676211 5.357544
182 2 11.622559 28.971186 4.23959
183 5 12.375323 28.349291 4.506275
184 2 38.209324 26.154766 0.999321
185 2 37.749985 27.19702 2.145885
186 5 37.436454 26.453635 1.534652
187 2 41.736381 9.73849 1.203715
188 2 42.827805 9.646693 2.392102
189 5 42.305135 10.280271 1.80056
190 2 29.089609 20.074835 9.189219
191 2 29.355432 20.753298 10.631759
192 5 29.657016 20.72601 9.665928
193 2 33.682393 30.531581 11.428159
194 2 33.623549 31.929315 12.237338
195 5 33.848665 31.500718 11.348432
196 2 25.179236 14.274715 15.981143
197 2 24.773404 13.36329 14.709726
198 5 24.641548 13.495205 15.704583
199 2 31.468277 17.760386 17.469027
200 2 32.32702 19.109006 17.704988
201 5 31.391355 18.726201 17.654808
202 2 33.056369 17.636205 10.587268
203 2 34.613371 17.790472 10.992041
204 5 33.81013 18.27231 10.608424
205 2 57.729142 23.512624 5.958495
206 2 57.475171 23.341714 4.371616
207 5 57.031469 23.53187 5.261277
208 2 52.637105 31.472705 5.411586
209 2 52.671951 32.864391 6.232495
210 5 53.197992 32.031412 6.000213
211 2 7.546835 31.598702 13.486868
212 2 7.702982 31.966226 15.052895
213 5 8.014064 32.196308 14.117578
214 2 14.534398 21.461196 11.063571
215 2 13.699645 20.298719 11.814391
216 5 13.690265 20.951155 11.040591
217 2 16.234045 24.685424 8.957241
218 2 16.255474 24.409837 10.549563
219 5 15.834193 24.964232 9.814922
220 2 46.870624 23.879274 14.379579
221 2 46.700815 22.585544 13.425994
222 5 46.353369 23.048299 14.256456
223 2 17.737155 5.025515 3.844896
224 2 16.308398 5.05404 3.090088
225 5 16.84545 5.447457 3.852534
226 2 48.452297 5.130815 9.860805
227 2 49.305682 4.360337 8.725026
228 5 49.319174 4.696074 9.679816
229 2 4.342943 34.640429 4.424566
230 2 4.748618 35.18396 2.957632
231 5 4.727338 34.368966 3.557514
232 2 59.681364 31.851665 8.604678
233 2 59.976233 32.195269 7.053265
234 5 60.37744 31.8261 7.906069
235 2 47.129533 13.251158 10.049313
236 2 46.260034 13.454422 8.702261
237 5 46.238489 13.104939 9.651958
238 2 27.903601 32.263859 6.838301
239 2 27.913638 33.281614 8.093677
240 5 27.824749 33.215103 7.087594
241 2 37.067844 19.513332 16.577613
242 2 36.450653 20.76344 15.760178
243 5 36.976832 20.495638 16.582336
244 2 60.242341 21.093632 17.003513
245 2 59.745702 22.174282 18.09779
246 5 59.912311 22.016978 17.111877
247 2 53.174537 4.14815 11.849667
248 2 51.766146 4.856879 11.494655
249 5 52.286809 3.99005 11.44945
250 2 44.978309 21.423694 14.813339
251 2 44.476464 22.136778 13.452619
252 5 44.208943 21.876486 14.393473
253 2 29.833737 8.424742 9.339585
254 2 31.163415 8.463662 10.257374
255 5 30.235268 8.069882 10.167883
256 2 28.52639 24.880601 3.574518
257 2 29.224939 23.999946 4.735712
258 5 28.967009 24.01703 3.757087
259 2 13.299942 12.028355 11.113728
260 2 12.43593 13.373562 10.877519
261 5 13.096498 12.916035 11.493023
262 2 34.092395 6.522321 6.995623
263 2 34.178188 5.699959 8.38424
264 5 34.499787 5.733122 7.425073
265 2 32.376227 3.030802 6.578278
266 2 33.419589 3.820061 7.527153
267 5 33.331739 3.110946 6.810238
268 2 35.021957 2.314203 17.944228
269 2 34.874252 3.533843 18.994254
270 5 34.402372 2.737564 18.584626
271 2 56.481132 16.702172 9.092559
272 2 57.273861 17.95514 9.735634
273 5 57.154179 17.39717 8.899648
274 2 54.538107 19.754026 16.281312
275 2 54.766141 18.655107 15.118439
276 5 54.238235 19.477151 15.383176
277 2 7.577141 14.967618 11.624425
278 2 7.725099 15.252048 10.04041
279 5 7.27495 15.557741 10.8939
280 2 44.313867 35.174484 7.913231
281 2 44.463621 35.371106 9.510357
282 5 44.952516 35.416219 8.625216
283 2 27.392908 15.845717 11.317786
284 2 27.417935 16.482584 12.802935
285 5 26.834691 16.291751 11.99799
286 2 31.472081 29.561466 1.609884
287 2 30.755407 28.247407 1.000357
288 5 30.607232 29.203279 1.298486
289 2 42.707644 19.919441 10.834122
290 2 43.452041 21.030872 11.741034
291 5 42.907411 20.178033 11.764957
292 2 5.7411 28.177429 5.201397
293 2 5.448118 28.274144 3.614985
294 5 6.063093 27.882142 4.316888
295 2 30.994908 11.994468 6.495593
296 2 31.265885 13.570578 6.262468
297 5 31.468157 12.779394 6.8605
298 2 46.117262 13.949764 3.415407
299 2 45.16648 12.837958 4.102282
300 5 46.115113 13.050063 3.820086
301 2 8.668571 27.756359 10.741883
302 2 8.876173 28.289977 12.25319
303 5 8.452483 28.496395 11.357419
304 2 52.212731 18.903236 7.13229
305 2 51.813818 18.842845 5.567324
306 5 51.709564 19.371139 6.424391
307 2 31.292125 27.4824 13.959962
308 2 31.375564 28.045278 12.447315
309 5 31.067286 28.254446 13.388453
310 2 1.498494 1.000348 12.430856
311 2 1.000459 1.000254 10.893372
312 5 1.000158 1.523996 11.759526
313 2 61.280295 35.415646 10.902924
314 2 62.038809 34.114755 10.316209
315 5 62.159406 34.972433 10.840014
316 2 59.692002 2.206275 1.143237
317 2 60.068591 3.144536 2.404087
318 5 59.833486 2.202042 2.119554
319 2 54.467345 9.064781 13.49965
320 2 54.1003 8.922633 11.932179
321 5 53.92512 9.456118 12.774338
322 2 18.137798 12.250174 10.093171
323 2 17.973718 11.854484 8.534837
324 5 18.095456 11.486628 9.469925
325 2 19.099944 6.510895 10.115708
326 2 19.103423 4.971519 9.623564
327 5 19.150097 5.934847 9.316405
328 2 9.077466 32.283821 4.897084
329 2 9.80456 33.31921 3.891501
330 5 9.938958 32.496912 4.466208
331 2 20.95642 25.00493 11.633495
332 2 19.382847 25.32003 11.824483
333 5 20.318876 25.666603 11.992602
334 2 15.947423 19.860958 7.796236
335 2 17.226323 19.245888 7.022932
336 5 16.284745 19.598765 6.907023
337 2 59.712624 30.56206 14.676181
338 2 60.595412 29.845146 13.527871
339 5 59.872184 29.701351 14.221262
340 2 10.874782 15.018539 13.610229
341 2 11.063716 16.584173 13.25669
342 5 10.469109 15.77569 13.125066
343 2 62.157069 13.707417 2.9463
344 2 62.055986 15.241882 3.443385
345 5 61.85682 14.280819 3.690807
346 2 58.166793 32.935758 14.561327
347 2 56.942026 32.375837 15.454818
348 5 57.651542 32.123036 14.778648
349 2 47.567841 25.025562 12.636161
350 2 49.130588 24.796417 12.293803
351 5 48.379073 24.542791 12.922632
352 2 55.102526 29.627549 15.577793
353 2 55.875559 30.653559 14.597173
354 5 55.992926 29.873648 15.231594
355 2 9.128061 34.857542 15.357043
356 2 9.981288 34.417265 16.657064
357 5 9.992202 34.981212 15.816605
358 2 8.300695 25.917522 3.349958
359 2 8.226069 27.340542 2.587501
360 5 7.961047 26.840548 3.426725
361 2 16.953833 7.334196 2.414883
362 2 15.874846 7.407173 3.615865
363 5 16.308036 7.929133 2.864579
364 2 10.431794 23.160441 7.056763
365 2 11.296204 22.819044 8.378936
366 5 10.419386 22.651531 7.9018
367 2 28.178653 15.895962 7.93375
368 2 28.915578 16.792345 6.808879
369 5 29.041867 16.045345 7.480124
370 2 42.880402 20.426268 2.892365
371 2 42.927967 21.945844 3.440564
372 5 42.832871 20.975039 3.710791
373 2 48.204159 17.374843 11.866145
374 2 48.662215 17.866867 10.396454
375 5 47.867245 17.719775 11.005482
376 2 37.465531 33.24237 11.906251
377 2 38.784219 33.426764 12.822195
378 5 37.987657 32.830915 12.635167
379 2 38.698474 13.52637 15.257737
380 2 40.092088 14.257809 15.624793
381 5 39.604644 13.370772 15.615334
382 2 5.809125 32.786529 10.237207
383 2 4.864403 32.825191 8.92652
384 5 5.054788 33.264701 9.81821
385 2 20.022564 12.317718 7.625823
386 2 18.796814 12.441211 6.579791
387 5 19.568756 12.937485 7.006809
388 2 35.903624 15.47741 5.070494
389 2 36.650499 16.65522 4.253894
390 5 36.773618 15.752929 4.695753
391 2 16.998774 27.239706 12.387296
392 2 18.067538 28.441988 12.542721
393 5 17.95604 27.464084 12.306504
394 2 1.397544 24.736519 4.413482
395 2 1.166122 25.252537 2.899525
396 5 1.001092 24.490025 3.544403
397 2 18.460916 14.272448 17.116887
398 2 16.921103 14.027307 16.691711
399 5 17.620041 13.84099 17.399736
400 2 25.691607 17.92716 1.251534
401 2 24.691088 19.178811 1.46184
402 5 24.757454 18.168812 1.456946
403 2 18.510139 9.996816 12.524385
404 2 18.631515 9.915961 10.914842
405 5 18.261421 9.456529 11.737327
406 2 49.631073 10.772202 8.117376
407 2 50.001741 9.622888 7.043329
408 5 49.29492 9.948849 7.690384
409 2 36.361472 20.518932 4.183275
410 2 35.959185 20.012915 5.664494
411 5 36.485838 19.785025 4.830689
412 2 13.703855 18.097606 11.919567
413 2 14.062608 17.717813 10.390204
414 5 13.462486 18.279843 10.980545
415 2 13.013036 9.48376 7.153829
416 2 12.20522 10.253704 5.984849
417 5 12.738668 9.422991 6.208176
418 2 41.232042 27.536219 12.069729
419 2 42.532244 27.283344 12.995701
420 5 42.089902 27.051221 12.115371
421 2 50.517254 32.419283 6.202783
422 2 50.671682 31.318529 7.375979
423 5 50.281143 31.496407 6.459264
424 2 40.743225 13.653811 1.446603
425 2 41.216398 12.24886 2.090121
426 5 41.016657 12.732521 1.22369
427 2 37.057267 1.745786 1.923134
428 2 35.960529 0.988013 2.836831
429 5 36.101334 1.733312 2.166584
430 2 52.501565 25.921298 17.322939
431 2 51.079524 25.168081 17.173411
432 5 52.021217 25.230705 16.807596
433 2 17.765615 16.417768 0.981333
434 2 19.254793 17.043015 1.038884
435 5 18.446873 16.786636 1.592115
436 2 24.288859 11.315866 0.955359
437 2 24.744234 11.520449 2.492458
438 5 24.713375 11.952763 1.577756
439 2 10.07032 27.419563 4.400198
440 2 11.006088 27.073365 5.671568
441 5 10.057631 27.058965 5.318369
442 2 53.04681 7.811119 10.353584
443 2 52.79133 7.339441 8.829069
444 5 52.341605 7.631936 9.687394
445 2 58.355366 17.229715 5.473138
446 2 57.939019 15.671328 5.373246
447 5 58.694936 16.310264 5.585088
448 2 39.803919 2.091588 8.506154
449 2 38.795273 1.276231 9.470376
450 5 38.850154 1.924684 8.695119
451 2 60.080304 27.794264 9.259373
452 2 58.757866 27.042013 9.804507
453 5 59.160944 27.532091 9.015914
454 2 52.502904 25.970053 12.214909
455 2 51.301691 24.987796 12.666743
456 5 52.305966 25.114098 12.664118
457 2 18.868018 23.11177 19.004351
458 2 19.499109 23.741207 17.65623
459 5 19.69252 23.16446 18.465231
460 2 30.662792 25.451046 3.918263
461 2 31.815627 25.102523 2.840581
462 5 30.995109 24.74573 3.313842
463 2 9.675892 7.24174 9.379456
464 2 9.925672 7.428109 10.965259
465 5 10.118589 7.814381 10.049778
466 2 43.360872 33.424078 6.603781
467 2 43.469567 33.162601 8.194916
468 5 43.675131 32.779198 7.280984
469 2 43.326886 23.598921 12.278619
470 2 44.877051 24.035301 12.414472
471 5 43.959746 24.336899 12.110965
472 2 9.565157 19.489941 3.448922
473 2 9.793692 18.758226 4.871687
474 5 10.12015 18.821079 3.915652
475 2 38.894842 17.318436 5.719381
476 2 38.398877 18.602985 4.873303
477 5 38.093513 17.820118 5.437571
478 2 40.947602 31.5705 10.133576
479 2 40.634077 30.367158 11.165838
480 5 41.366843 30.938685 10.764668
481 2 9.408731 26.740261 8.931962
482 2 9.622244 26.389036 7.368968
483 5 9.668991 27.125438 8.061827
484 2 17.357967 27.862906 16.09792
485 2 17.418616 27.448386 14.537026
486 5 17.655444 27.15651 15.476838
487 2 39.579588 10.164641 14.272448
488 2 39.066229 8.776656 13.622943
489 5 38.787523 9.709405 13.900126
490 2 39.063416 18.754534 14.960414
491 2 39.449936 19.229746 16.455964
492 5 39.029731 19.519853 15.582012
493 2 8.076701 29.231333 6.264029
494 2 8.101947 28.5561 4.795929
495 5 7.855272 28.408749 5.766478
496 2 43.22924 32.784998 14.441071
497 2 42.313025 31.746769 15.274453
498 5 42.534413 32.090807 14.348628
499 2 30.44439 31.336873 4.980884
500 2 29.398899 30.827951 6.103312
501 5 29.846434 30.591722 5.226707
502 2 43.240255 12.985242 5.157297
503 2 42.881707 12.245852 6.548929
504 5 42.600568 12.367346 5.584187
505 2 13.824894 2.137325 9.526521
506 2 14.474593 2.978162 10.744216
507 5 13.624011 2.806352 10.223142
508 2 4.970562 1.041603 12.383285
509 2 6.005673 1.000965 13.623765
510 5 5.069358 1.260555 13.340118
511 2 15.307127 8.124486 14.424865
512 2 14.539202 6.948452 13.625408
513 5 15.377775 7.514651 13.652634
514 2 24.275622 3.822842 11.780038
515 2 23.8379 5.377683 11.727467
516 5 23.764651 4.518569 12.257641
517 2 2.706998 6.866517 5.918246
518 2 4.138931 7.051163 6.644447
519 5 3.676966 6.727427 5.804024
520 2 7.055436 13.027252 5.065363
521 2 6.736512 12.913636 3.485086
522 5 6.333219 12.868436 4.412362
523 2 56.924369 32.517611 10.600374
524 2 58.477128 32.9302 10.425429
525 5 57.797249 32.530492 11.059879
526 2 43.626754 35.426078 4.095688
527 2 43.637105 35.415817 5.711758
528 5 44.124292 35.099948 4.88266
529 2 52.406467 29.839592 6.867639
530 2 52.556108 28.245295 6.649189
531 5 52.847863 29.029943 7.218166
532 2 57.810272 4.951089 13.556193
533 2 57.551234 6.162537 12.518316
534 5 57.447645 5.166307 12.664333
535 2 42.735701 20.288515 14.78991
536 2 42.761322 18.785916 14.195406
537 5 43.182111 19.704317 14.132139
538 2 40.971169 22.883159 3.07893
539 2 40.214441 23.878258 4.103154
540 5 40.080897 23.168955 3.393519
541 2 37.399322 6.848262 1.030276
542 2 38.079223 5.749585 2.001121
543 5 37.652472 5.896984 1.095205
544 2 34.894554 32.489076 14.54027
545 2 33.955954 33.475888 15.410401
546 5 34.684246 32.774762 15.460805
547 2 15.016959 12.746709 8.704891
548 2 15.819641 11.847521 9.781487
549 5 15.817452 12.183112 8.826552
550 2 49.509758 26.33104 3.889039
551 2 49.858769 27.90174 4.040657
552 5 49.11281 27.234178 3.890879
553 2 53.372933 2.111291 17.797764
554 2 53.191063 1.765762 16.229507
555 5 53.747561 2.279744 16.90082
556 2 7.351169 11.741934 15.848091
557 2 8.163281 12.107236 17.196765
558 5 8.255801 11.891123 16.212254
559 2 53.100218 3.445984 7.604699
560 2 51.623265 2.940797 7.18602
561 5 52.614694 2.801909 7.036663
562 2 29.787309 35.125093 5.756365
563 2 29.691536 33.8369 4.785138
564 5 30.063856 34.773628 4.877033
565 2 8.526716 21.419057 14.462682
566 2 8.682134 19.955919 15.131238
567 5 9.120184 20.861562 15.019661
568 2 31.794849 4.241946 4.022112
569 2 31.816212 3.322031 2.693506
570 5 32.387531 3.862327 3.330847
571 2 55.071831 28.622081 1.000001
572 2 55.999994 28.713823 2.319847
573 5 55.334142 28.138954 1.819155
574 2 48.513169 20.819231 6.795951
575 2 48.601367 20.096308 5.353211
576 5 48.198441 20.039501 6.280007
577 2 32.671996 6.358015 13.363836
578 2 32.743002 5.734169 14.85302
579 5 33.221967 5.800513 13.963797
580 2 45.755383 24.379071 17.090403
581 2 46.710485 24.337309 18.39345
582 5 46.575949 23.973596 17.458496
583 2 42.37392 4.661782 1.860062
584 2 43.914594 4.394095 2.268183
585 5 43.071238 4.89509 2.517745
586 2 35.97538 17.829541 5.954674
587 2 34.675778 16.965836 6.375323
588 5 35.123685 17.464087 5.616605
589 2 39.603214 17.092686 16.953865
590 2 39.784977 15.809908 17.919959
591 5 39.97611 16.798706 17.818593
592 2 50.497877 3.694355 4.545029
593 2 49.835161 2.220996 4.588812
594 5 50.682513 2.748625 4.756532
595 2 10.674035 8.631864 15.332957
596 2 10.725547 8.190064 16.88668
597 5 10.574602 7.861586 15.941246
598 2 10.785819 31.904245 2.523099
599 2 10.659034 31.380484 0.999453
600 5 11.215213 31.937765 1.635558
601 2 6.710986 16.563626 16.617541
602 2 7.319459 15.784492 15.339024
603 5 7.436508 16.583434 15.949367
604 2 29.503281 5.899362 5.829946
605 2 29.807841 5.349055 4.341221
606 5 29.762434 5.095543 5.320096
607 2 59.177818 30.099794 7.259891
608 2 59.075583 29.748636 8.834099
609 5 59.43118 29.43237 7.94076
610 2 42.396074 29.862112 2.284531
611 2 41.471425 31.186747 2.332115
612 5 42.29678 30.743842 2.715719
613 2 61.268044 7.048161 1.92915
614 2 60.437959 6.018422 1.000445
615 5 60.725168 6.224676 1.948864
616 2 23.022556 27.771916 11.972172
617 2 21.667243 28.64672 12.070873
618 5 22.288176 28.157911 11.438389
619 2 30.180547 16.656884 5.023538
620 2 31.30678 15.518209 5.240137
621 5 31.13005 16.44141 4.864646
622 2 47.347853 10.240757 9.914023
623 2 46.690922 9.625635 11.256395
624 5 47.560516 9.788805 10.764755
625 2 38.675967 25.032475 3.034676
626 2 38.471655 24.097317 1.732511
627 5 37.997207 24.557263 2.499242
628 2 27.292398 7.10933 2.920878
629 2 28.42119 8.253204 2.74978
630 5 28.234137 7.328547 3.116587
631 2 59.520342 20.490616 10.398914
632 2 60.467519 21.466539 11.272026
633 5 60.031894 20.553446 11.240102
634 2 46.667761 11.462195 0.912708
635 2 47.108558 10.221592 1.84999
636 5 47.240854 11.209719 1.674975
637 2 16.825491 7.634072 16.157672
638 2 16.31505 6.336811 15.340077
639 5 16.107358 6.959303 16.110723
640 2 25.951721 11.188393 13.348249
641 2 25.808468 11.200277 11.738518
642 5 25.295898 11.196492 12.611321
643 2 15.212419 2.579812 4.905111
644 2 14.252235 1.407186 5.466262
645 5 14.672678 2.3021 5.682791
646 2 42.595264 1.187175 4.372664
647 2 41.69063 1.828866 5.548149
648 5 41.843821 1.002206 4.984506
649 2 44.202235 31.968137 10.435318
650 2 43.511255 31.924861 11.89565
651 5 43.715206 31.384686 11.0643
652 2 33.283067 11.190088 18.685188
653 2 34.537591 10.327515 18.14294
654 5 34.090336 10.700281 18.97091
655 2 58.133864 7.351388 3.78104
656 2 59.696621 7.543813 3.416817
657 5 58.789651 7.288993 3.046683
658 2 1.095576 3.235752 10.125763
659 2 0.999188 3.662722 8.570031
660 5 1.260359 3.97706 9.496049
661 2 3.414669 1.439188 14.929178
662 2 2.572542 2.817643 14.979949
663 5 3.133902 2.174551 15.523856
664 2 10.914799 18.399791 16.756435
665 2 11.124686 17.686438 18.191346
666 5 11.598044 18.034466 17.367127
667 2 16.482745 21.714615 9.583507
668 2 16.30903 22.409327 8.134682
669 5 16.677089 22.533811 9.069328
670 2 2.373407 3.013233 1.0
671 2 1.652999 3.262252 2.425096
672 5 2.309096 2.67591 1.924829
673 2 37.000917 9.749125 12.488434
674 2 36.430591 11.249702 12.675224
675 5 36.861856 10.467049 13.15061
676 2 62.053975 8.990969 3.065385
677 2 61.988353 9.121302 1.45585
678 5 62.157528 9.625451 2.317093
679 2 22.181981 23.293427 17.318609
680 2 22.018693 22.520579 18.728552
681 5 22.518588 23.256095 18.24518
682 2 53.755366 32.17254 3.014272
683 2 53.096248 33.175768 4.096397
684 5 53.69503 33.12006 3.28222
685 2 23.375522 24.059729 11.598894
686 2 22.831255 24.372019 13.088237
687 5 22.811977 23.705279 12.326914
688 2 21.083565 33.042744 3.177122
689 2 22.489853 32.246346 3.177439
690 5 21.503905 32.177459 3.395814
691 2 55.834958 18.945578 2.742492
692 2 56.171286 17.43202 3.198477
693 5 55.480567 18.025004 2.755979
694 2 51.264428 13.814668 4.232992
695 2 51.364882 12.72887 5.425824
696 5 51.264134 13.713576 5.214324
697 2 31.450068 31.468625 13.771733
698 2 32.598909 31.658269 14.89249
699 5 32.1272 32.099584 14.113221
700 2 31.02914 19.874683 8.171818
701 2 32.015829 20.083405 6.908974
702 5 31.614883 20.530102 7.723978
703 2 16.183714 28.396999 5.667805
704 2 15.185124 29.337857 6.521912
705 5 15.879436 29.328021 5.78546
706 2 55.430275 1.483447 14.146233
707 2 56.956503 1.000586 13.924043
708 5 56.365173 1.797562 14.123255
709 2 7.113648 23.610993 4.945057
710 2 6.786335 23.041057 3.468597
711 5 6.472923 23.064929 4.430745
712 2 2.485713 17.264645 11.630037
713 2 3.704636 16.990076 12.65509
714 5 2.721338 16.824702 12.481014
715 2 45.648291 8.43493 16.005326
716 2 46.478905 7.052873 16.114374
717 5 45.666355 7.554502 16.450018
718 2 10.388705 16.24426 15.419003
719 2 9.371266 14.991034 15.340647
720 5 10.261717 15.308008 15.702796
721 2 22.415611 19.962037 18.996683
722 2 20.828433 19.657561 19.004272
723 5 21.526906 20.388888 18.961562
724 2 45.800494 20.065672 6.897199
725 2 46.022034 20.535272 8.427653
726 5 45.428684 20.633076 7.613468
727 2 23.405425 20.974919 11.98494
728 2 23.742576 19.476842 12.488913
729 5 24.118345 20.294204 12.024969
730 2 10.237865 28.936368 6.555234
731 2 9.933599 30.226894 5.631189
732 5 10.267871 29.922263 6.536721
733 2 32.991215 22.640209 4.469391
734 2 33.844243 23.686741 3.581129
735 5 33.387512 23.543629 4.473005
736 2 48.650298 0.997654 5.980051
737 2 49.146715 1.209331 7.503422
738 5 48.967985 1.675274 6.622808
739 2 51.961483 20.541924 17.039002
740 2 51.889681 18.936841 16.864506
741 5 52.108176 19.807521 16.396847
742 2 45.780276 17.032078 10.928827
743 2 46.096981 17.241838 12.499685
744 5 45.664207 16.627886 11.821233
745 2 33.216065 27.061663 4.394179
746 2 32.670936 25.597063 4.806097
747 5 33.297899 26.09982 4.190727
748 2 7.943593 31.478293 2.584794
749 2 7.841577 32.369097 1.240191
750 5 8.44322 32.105701 2.010371
751 2 4.101529 25.716622 13.04365
752 2 3.788851 26.010097 14.601854
753 5 4.092752 25.306408 13.9408
754 2 44.974756 29.72548 10.35025
755 2 46.093777 29.555165 11.503801
756 5 45.581697 30.22626 10.945291
757 2 58.403691 25.50482 3.083284
758 2 57.700276 26.886732 2.627846
759 5 58.58615 26.408093 2.731093
760 2 10.206866 24.88384 18.08122
761 2 9.66907 25.599546 16.735696
762 5 9.677096 24.735221 17.262388
763 2 32.680952 9.982362 10.746461
764 2 33.497635 11.260894 10.189434
765 5 33.513273 10.500278 10.857076
766 2 47.319839 21.969608 11.404523
767 2 48.579873 22.058043 12.412685
768 5 48.301995 21.891057 11.453817
769 2 25.839035 32.690033 15.104761
770 2 26.487258 33.177338 13.706821
771 5 26.392932 32.395921 14.343232
772 2 57.697234 23.756697 9.665381
773 2 57.726674 25.19311 10.405481
774 5 57.669606 24.192889 10.549804
775 2 54.755288 3.597282 9.570669
776 2 55.204183 3.909045 8.049751
777 5 55.491055 3.485369 8.923095
778 2 53.308233 22.036329 15.463624
779 2 52.703202 20.848332 14.550117
780 5 52.467653 21.604704 15.180153
781 2 24.915824 1.280348 13.689668
782 2 25.361736 1.95194 12.288946
783 5 25.632262 1.296957 13.011677
784 2 53.890489 20.184038 0.995692
785 2 55.462054 20.547409 1.095889
786 5 54.795694 19.791828 0.997958
787 2 60.764702 18.456748 18.09254
788 2 59.325793 18.629362 17.37725
789 5 60.039755 19.102338 17.916767
790 2 25.453376 35.042313 14.566924
791 2 27.026401 35.412746 14.550566
792 5 26.176629 35.402279 14.000743
793 2 46.118426 11.28789 14.216355
794 2 46.206025 11.295048 12.60261
795 5 46.490244 10.80432 13.441021
796 2 20.017964 8.088963 3.372103
797 2 20.2896 7.588327 4.884542
798 5 19.985119 8.369424 4.317351
799 2 9.279108 20.52116 11.38598
800 2 9.708053 20.346529 12.934336
801 5 9.66425 19.885236 12.034437
802 2 52.753078 26.497408 1.301827
803 2 54.015667 26.447903 2.309455
804 5 53.029025 26.661159 2.234709
805 2 31.145366 4.610617 15.85742
806 2 31.277019 3.506464 17.030199
807 5 31.754436 4.257993 16.548738
808 2 60.623186 10.127428 16.598065
809 2 59.504502 10.858272 15.689051
810 5 60.458622 10.520924 15.708509
811 2 32.590136 19.089728 13.061192
812 2 32.190523 19.425296 11.531617
813 5 32.487655 19.825818 12.412425
814 2 6.675304 23.673165 9.533291
815 2 5.676653 23.745264 8.264672
816 5 5.859696 24.109993 9.190952
817 2 21.975523 25.5236 2.540762
818 2 22.459649 25.553796 0.999138
819 5 22.576523 25.088655 1.890492
820 2 25.668826 6.920185 11.027433
821 2 26.84263 7.590174 10.14132
822 5 25.840134 7.498301 10.246621
823 2 11.587392 28.198803 8.123992
824 2 11.979447 29.193708 9.335747
825 5 11.436335 29.103851 8.486345
826 2 13.186867 25.710839 16.250715
827 2 12.72201 24.840157 14.970981
828 5 13.177361 24.79911 15.874031
829 2 39.04693 26.771509 4.550526
830 2 39.345099 27.619107 5.893868
831 5 39.366081 26.695242 5.480879
832 2 34.714476 29.445431 15.980399
833 2 35.548823 28.546982 14.927522
834 5 35.185786 29.473204 15.114185
835 2 9.885328 11.557224 8.494123
836 2 9.422298 12.148365 9.925225
837 5 10.202646 12.049038 9.288264
838 2 2.804067 4.809193 14.07178
839 2 3.717103 6.052436 13.589485
840 5 3.394634 5.530499 14.394546
841 2 9.427841 35.355155 7.305044
842 2 9.441546 35.414017 5.690038
843 5 9.532194 34.804604 6.493111
844 2 4.931047 17.301262 15.508615
845 2 5.610003 17.226496 14.043923
846 5 5.370938 16.691929 14.869521
847 2 11.16986 27.144199 1.121946
848 2 12.488438 27.886718 1.689321
849 5 11.512313 27.688884 1.869793
850 2 20.496416 12.980414 1.476019
851 2 21.025058 13.01123 3.002938
852 5 21.089865 13.462655 2.099311
853 2 21.531895 25.090006 6.62082
854 2 21.438953 24.758137 5.041858
855 5 22.066179 24.831193 5.832919
856 2 30.12173 9.203757 12.049111
857 2 29.218659 8.73742 13.305649
858 5 30.039725 9.261523 13.030523
859 2 56.63683 16.046428 11.278525
860 2 58.027022 15.941371 10.461075
861 5 57.390564 15.444551 11.0715
862 2 19.894697 30.351853 2.814093
863 2 19.727533 30.708878 1.246775
864 5 20.158749 30.996983 2.116014
865 2 38.907385 28.786845 1.00243
866 2 39.348587 29.837146 2.148775
867 5 38.820289 29.725694 1.292617
868 2 21.360818 14.279134 17.141442
869 2 20.965535 13.072696 18.141519
870 5 21.469601 13.311001 17.296738
871 2 22.298699 30.392254 8.85807
872 2 22.662285 29.569146 7.515612
873 5 21.931795 30.07703 7.998276
874 2 26.705856 28.554593 2.253215
875 2 26.617918 26.955849 2.47271
876 5 26.11756 27.830009 2.572771
877 2 2.523558 2.932899 12.66366
878 2 3.900456 2.948045 11.817599
879 5 3.456925 2.613435 12.663675
880 2 19.924467 8.560561 14.268072
881 2 19.147721 8.305448 15.662159
882 5 19.677686 7.863838 14.921454
883 2 33.701214 35.134131 13.678866
884 2 32.9379 33.852057 13.057955
885 5 33.838167 34.216918 13.342422
886 2 1.891115 22.095377 5.324758
887 2 1.001065 23.263788 5.99894
888 5 1.465545 22.380472 6.167873
889 2 42.623908 21.913553 16.260654
890 2 41.567025 23.044852 15.796913
891 5 42.291287 22.413728 15.478082
892 2 6.738478 32.939134 4.145491
893 2 7.044622 34.035432 2.998188
894 5 7.462856 33.356938 3.62209
895 2 62.073717 23.403586 8.06027
896 2 62.159029 22.374384 9.303395
897 5 61.795328 22.508722 8.368407
898 2 59.687978 14.498549 10.425793
899 2 60.151573 14.788254 8.904923
900 5 60.445807 14.4171 9.799461
901 2 1.742085 29.885221 3.313445
902 2 2.163443 30.202065 1.785714
903 5 2.504877 29.895534 2.687927
904 2 53.607612 34.818892 12.87078
905 2 53.267698 35.401751 11.402234
906 5 53.994902 35.29445 12.09807
907 2 54.998504 22.276388 13.719468
908 2 54.627616 22.92487 12.286356
909 5 55.344704 22.852075 12.996999
910 2 34.072726 4.501199 2.068562
911 2 34.632836 3.261514 1.196006
912 5 33.816182 3.641908 1.657421
913 2 8.297806 2.395197 18.005371
914 2 8.177718 1.000008 17.198574
915 5 7.910812 1.488566 18.043914
916 2 10.495939 6.774255 7.392518
917 2 12.10624 6.683258 7.495213
918 5 11.325819 6.788518 6.859295
919 2 37.778219 9.392333 6.894095
920 2 37.312532 8.750786 8.302444
921 5 38.027396 9.30181 7.84433
922 2 24.221836 13.640126 2.90044
923 2 24.651195 14.432853 1.559123
924 5 24.998293 13.976259 2.393133
925 2 27.937696 30.475325 8.440414
926 2 26.815865 30.076853 9.533396
927 5 26.964652 30.410162 8.589312
928 2 39.539718 1.318047 12.47116
929 2 41.100105 1.59951 12.783996
930 5 40.314519 0.995247 12.989536
931 2 37.232609 22.817723 3.608484
932 2 36.9055 22.764042 5.19026
933 5 36.50217 22.713235 4.263291
934 2 61.4226 2.09732 6.892745
935 2 61.769132 2.643268 8.373877
936 5 61.306423 2.864985 7.50137
937 2 50.690837 11.089308 16.450175
938 2 50.657288 11.221356 14.839792
939 5 51.116118 11.541362 15.683355
940 2 61.227553 14.115859 0.994283
941 2 60.276205 14.619244 2.199869
942 5 60.69818 14.882656 1.318348
943 2 54.916072 1.96385 3.034564
944 2 54.072014 1.128227 1.938573
945 5 54.963936 1.565318 2.133392
946 2 49.622341 32.344867 4.194014
947 2 49.906278 33.380356 2.986107
948 5 50.19246 32.504423 3.404876
949 2 41.957632 7.645155 2.457374
950 2 41.695127 6.514011 3.581429
951 5 41.268575 7.048957 2.835498
952 2 10.705608 18.798101 10.430889
953 2 11.386937 17.644768 11.33505
954 5 11.303999 18.644475 11.200017
955 2 21.284489 23.451342 10.109995
956 2 19.683185 23.4662 10.32794
957 5 20.453152 22.95934 9.909885
958 2 48.582214 33.230725 12.739222
959 2 50.162338 33.363544 13.051414
960 5 49.47406 33.250209 12.317959
961 2 47.882933 7.615143 10.855578
962 2 46.277543 7.481 10.984524
963 5 47.041022 7.653716 10.342811
964 2 27.676492 1.548037 3.584935
965 2 26.374913 1.607728 4.541086
966 5 27.07782 0.997596 4.143359
967 2 57.952295 28.661459 13.95279
968 2 58.178627 28.034056 12.480704
969 5 57.857324 27.836616 13.420017
970 2 8.006227 5.186746 12.249697
971 2 7.840465 5.444027 10.662806
972 5 7.813426 4.741329 11.390825
973 2 23.457004 11.675469 16.056901
974 2 22.303557 11.260138 15.003831
975 5 22.615676 11.981027 15.642132
976 2 45.36609 28.371024 2.264661
977 2 46.422322 29.273232 3.09067
978 5 46.328183 28.551527 2.387244
979 2 31.129891 17.997009 2.592572
980 2 31.317009 17.979178 0.987404
981 5 30.67738 17.774411 1.744684
982 2 45.320718 6.638031 14.135472
983 2 45.200514 7.667219 12.895223
984 5 45.221758 6.689233 13.15526
985 2 11.567732 2.002279 7.823607
986 2 10.056163 2.150973 7.271389
987 5 10.77587 2.590607 7.831095
988 2 51.468024 9.911477 12.523929
989 2 50.792009 11.329696 12.145047
990 5 51.461933 10.871725 12.75002
991 2 46.12847 0.993349 3.853832
992 2 47.122508 1.046324 2.580656
993 5 47.078581 0.971869 3.589147
994 2 44.040558 7.590493 1.7573
995 2 43.978145 6.175773 0.978477
996 5 44.444333 6.691416 1.714213
997 2 54.811543 31.86113 13.096921
998 2 55.024371 31.870817 11.494889
999 5 54.448155 32.217015 12.251624
1000 2 28.510332 35.412335 12.297182
1001 2 28.408127 34.185918 13.344726
1002 5 28.073788 34.542463 12.458374
1003 2 13.429465 12.969474 5.409506
1004 2 12.41921 12.222014 4.393345
1005 5 13.339419 12.633201 4.486444
1006 2 54.870362 16.184935 16.236253
1007 2 55.859436 15.895703 17.481231
1008 5 54.982171 16.319719 17.207109
1009 2 5.75072 16.817717 11.859101
1010 2 5.272386 17.943165 10.802474
1011 5 6.056017 17.380255 11.108384
1012 2 51.118031 27.915275 14.161501
1013 2 50.986675 27.586013 15.738278
1014 5 50.468069 27.742285 14.883204
1015 2 29.924909 33.093795 1.106992
1016 2 29.323568 34.080292 2.237083
1017 5 29.339073 33.87527 1.245997
1018 2 49.244331 20.283802 10.218884
1019 2 49.430147 20.034537 11.804833
1020 5 49.722359 19.733546 10.883669
1021 2 61.011032 10.892651 6.991117
1022 2 61.117905 9.280072 6.983081
1023 5 61.459774 10.126304 7.420739
1024 2 42.882175 20.761209 8.76272
1025 2 43.384088 21.609184 7.481737
1026 5 42.571487 21.234441 7.954787
1027 2 22.542226 22.882222 4.087322
1028 2 21.5459 22.988941 2.819315
1029 5 22.261161 23.471962 3.348106
1030 2 25.906393 8.565382 6.786318
1031 2 26.125727 7.59851 8.06262
1032 5 26.032421 7.624576 7.055078
1033 2 36.529157 34.278248 3.060276
1034 2 37.348644 35.413239 2.25273
1035 5 36.973464 34.47454 2.20162
1036 2 20.942525 29.213696 5.432461
1037 2 20.101032 30.536721 5.824111
1038 5 20.921283 29.986467 6.045327
1039 2 17.240125 22.646636 11.418075
1040 2 18.502812 23.176339 12.276521
1041 5 17.512313 22.970507 12.309282
1042 2 28.253552 14.24657 6.478838
1043 2 29.164009 13.059645 7.090537
1044 5 28.251932 13.289067 6.716359
1045 2 24.16094 13.152349 8.068355
1046 2 22.935103 12.18443 7.653201
1047 5 23.221439 13.148531 7.767433
1048 2 53.790136 2.041152 11.703653
1049 2 54.82938 1.000601 11.033488
1050 5 54.47214 1.946953 10.997092
1051 2 50.764959 7.904129 8.184881
1052 2 51.227141 7.526677 6.682945
1053 5 50.986676 7.148586 7.590553
1054 2 20.087726 20.479147 4.488495
1055 2 20.568189 22.021445 4.537151
1056 5 19.774773 21.40979 4.392596
1057 2 38.755253 30.562053 7.212963
1058 2 39.625395 31.782933 7.816452
1059 5 38.970417 31.04594 8.045302
1060 2 16.066354 10.366718 4.311651
1061 2 15.966641 9.437457 5.630145
1062 5 16.530305 10.126522 5.148482
1063 2 17.309324 30.827419 7.946151
1064 2 18.010926 30.595212 6.508885
1065 5 17.658568 30.133638 7.337934
1066 2 13.639833 14.196177 2.949663
1067 2 12.573712 14.817188 3.993515
1068 5 12.677169 14.257758 3.15634
1069 2 29.952407 6.265637 8.931355
1070 2 28.79161 6.485129 7.82851
1071 5 29.235492 5.805825 8.433523
1072 2 23.128017 4.443245 18.833618
1073 2 22.932066 4.448825 17.229415
1074 5 23.596575 4.594925 17.978821
1075 2 19.045347 35.418536 13.290567
1076 2 18.561144 35.375171 14.831853
1077 5 18.307519 35.136342 13.881505
1078 2 2.813555 16.903274 6.811156
1079 2 1.40298 16.299613 6.303449
1080 5 1.835375 16.985659 6.909173
1081 2 14.04098 21.730674 14.853197
1082 2 14.125477 21.50132 16.450743
1083 5 14.012541 21.039908 15.556947
1084 2 1.0002 26.315401 15.279214
1085 2 1.74052 26.317352 13.842614
1086 5 1.601562 25.793044 14.697201
1087 2 20.282235 26.356488 14.085896
1088 2 20.348454 27.078242 15.530398
1089 5 20.232787 26.19099 15.057182
1090 2 25.046043 28.962889 4.498973
1091 2 26.36951 29.776092 4.052843
1092 5 26.031561 28.922759 4.479622
1093 2 25.151202 24.442406 10.235468
1094 2 25.221949 23.782195 8.762033
1095 5 25.617311 24.490589 9.367338
1096 2 47.551768 15.152994 8.161184
1097 2 46.414501 16.161698 8.709852
1098 5 46.856015 15.792207 7.877344
1099 2 7.622288 24.724869 1.185901
1100 2 6.997916 26.215118 1.151098
1101 5 7.835692 25.668939 0.995058
1102 2 44.452414 9.981229 7.024476
1103 2 43.357323 10.211185 5.858376
1104 5 43.636818 9.603368 6.61796
1105 2 21.805847 19.61123 16.922586
1106 2 22.375915 21.116643 17.066294
1107 5 22.027807 20.426286 16.413029
1108 2 44.022794 27.43001 6.702499
1109 2 43.428447 27.791585 8.161235
1110 5 43.390068 27.129038 7.396981
1111 2 6.063194 10.42443 4.433527
1112 2 7.042304 9.163122 4.683206
1113 5 6.318425 9.538176 4.083323
1114 2 16.76535 18.179468 1.846125
1115 2 17.528411 19.311785 2.710701
1116 5 16.634963 18.867338 2.541153
1117 2 56.204448 1.021225 8.592719
1118 2 57.16605 0.997395 7.294009
1119 5 57.145257 1.082896 8.302366
1120 2 51.816334 21.926201 3.299108
1121 2 52.626451 21.732884 1.914104
1122 5 52.127603 21.250637 2.651068
1123 2 52.607334 33.046393 10.041448
1124 2 52.377343 32.772931 11.617588
1125 5 52.657045 32.352113 10.740544
1126 2 3.446604 31.879733 2.560564
1127 2 4.888987 32.184415 3.222829
1128 5 4.417709 31.859656 2.38799
1129 2 5.471476 31.133816 15.435013
1130 2 5.4349 31.080202 13.82018
1131 5 4.873172 31.2009 14.6535
1132 2 21.656404 9.542156 3.152345
1133 2 22.154342 8.188694 3.881794
1134 5 22.005454 9.182616 4.002125
1135 2 15.938869 20.257491 16.377511
1136 2 16.143141 21.084163 15.003909
1137 5 16.399454 21.035028 15.981875
1138 2 15.398698 15.622122 17.126691
1139 2 14.928421 15.500412 15.585288
1140 5 14.725219 15.934282 16.476912
1141 2 22.315761 17.317161 4.00728
1142 2 22.910651 18.81433 4.135671
1143 5 22.99099 17.86394 4.474538
1144 2 11.280701 20.441538 16.023615
1145 2 11.293246 20.675308 14.424524
1146 5 11.867089 20.649115 15.257918
1147 2 44.03137 5.102881 12.204583
1148 2 44.47747 6.101641 11.014891
1149 5 44.439339 5.133233 11.30688
1150 2 3.427747 20.058085 9.521248
1151 2 3.235265 21.307509 10.528117
1152 5 3.65701 21.007781 9.658162
1153 2 9.474594 2.725008 3.864905
1154 2 9.011931 3.405866 5.255685
1155 5 8.984899 2.557207 4.70471
1156 2 5.360157 30.682925 10.699847
1157 2 6.692552 31.187386 11.462828
1158 5 5.901185 30.558492 11.515345
1159 2 46.116582 6.486229 8.348765
1160 2 45.393683 5.30397 9.180376
1161 5 45.766489 6.243207 9.238487
1162 2 59.0645 13.901188 13.916835
1163 2 58.70178 12.364832 14.26316
1164 5 58.593364 13.325056 14.564396
1165 2 30.11454 17.907103 8.643502
1166 2 30.794607 18.588737 9.941492
1167 5 30.005711 18.045564 9.61418
1168 2 45.590986 20.061946 2.45832
1169 2 45.789715 19.449874 0.975833
1170 5 45.249788 19.382811 1.82936
1171 2 48.598976 3.181079 13.127335
1172 2 49.696254 3.697907 12.059268
1173 5 48.994016 3.991358 12.726558
1174 2 27.188608 17.372635 9.18364
1175 2 26.495676 18.237294 8.00716
1176 5 26.653682 18.182154 9.005419
1177 2 51.906557 25.886993 14.685087
1178 2 53.397834 26.032682 15.290697
1179 5 52.755201 26.381058 14.590566
1180 2 35.050983 34.803387 6.717574
1181 2 35.037438 33.702373 5.534578
1182 5 34.458818 34.305694 6.105305
1183 2 6.055029 26.363766 16.562554
1184 2 6.600752 24.865305 16.82465
1185 5 5.771855 25.444671 16.782344
1186 2 34.42333 11.679599 16.411664
1187 2 34.439309 13.049105 15.553704
1188 5 34.788877 12.595604 16.38837
1189 2 41.148959 24.456842 18.298705
1190 2 41.136111 26.03241 17.939103
1191 5 41.01207 25.100589 17.563803
1192 2 47.404709 3.193983 11.278844
1193 2 47.736492 3.118112 9.698951
1194 5 48.138592 3.092133 10.627481
1195 2 42.206372 4.338791 4.991661
1196 2 41.922297 3.428163 3.687071
1197 5 41.521419 4.108803 4.319965
1198 2 13.908451 30.07094 14.656984
1199 2 12.292352 30.063093 14.664633
1200 5 13.1135 30.654753 14.678129
1201 2 32.149082 17.900715 7.155672
1202 2 31.094698 16.677908 7.085584
1203 5 32.016197 16.988403 6.804589
1204 2 24.172357 16.850761 7.421286
1205 2 24.74517 16.953076 5.913535
1206 5 24.947404 17.145042 6.88656
1207 2 48.992608 25.712919 7.506253
1208 2 49.206131 24.931401 6.107849
1209 5 48.547212 25.124549 6.85152
1210 2 14.830134 26.341943 1.399371
1211 2 14.848295 25.834612 2.933706
1212 5 15.238244 25.684901 2.011722
1213 2 11.782761 17.497952 4.484139
1214 2 11.66134 18.241164 5.9141
1215 5 12.068108 18.296109 4.988871
1216 2 36.6034 14.197203 15.299315
1217 2 36.107915 13.397674 13.985107
1218 5 36.525284 13.297696 14.901804
1219 2 30.458278 27.877866 4.636446
1220 2 31.05307 29.061879 3.711118
1221 5 31.157693 28.089994 3.973836
1222 2 49.334819 16.551735 17.508315
1223 2 50.672787 15.64526 17.514762
1224 5 50.316968 16.588398 17.423051
1225 2 21.178508 17.11721 6.95915
1226 2 21.190994 18.141409 5.709048
1227 5 20.956955 17.201074 6.00149
1228 2 39.005267 26.061932 11.358696
1229 2 38.474208 24.719154 12.08452
1230 5 38.376129 25.7256 12.04009
1231 2 8.553181 10.63731 4.063024
1232 2 7.845405 10.463928 2.620495
1233 5 7.918863 11.058926 3.436037
1234 2 50.816997 11.446058 9.948031
1235 2 51.122722 12.311389 8.617756
1236 5 51.543431 11.834501 9.405227
1237 2 5.899402 26.390691 6.474522
1238 2 7.345795 26.253745 5.766646
1239 5 6.838838 26.135694 6.634739
1240 2 41.378138 8.134836 14.230966
1241 2 41.207614 8.31321 15.828151
1242 5 41.201401 8.798001 14.939632
1243 2 27.09164 35.13776 3.912203
1244 2 27.230473 34.162721 5.193577
1245 5 27.513551 34.305444 4.232316
1246 2 58.210615 5.491108 8.277082
1247 2 57.222556 6.042225 9.431164
1248 5 57.269493 5.709857 8.476252
1249 2 40.773481 19.722598 13.970632
1250 2 40.619491 20.030528 12.391594
1251 5 41.23531 20.112108 13.190742
1252 2 26.809086 27.115547 17.029595
1253 2 26.990191 25.821519 17.980693
1254 5 27.436084 26.394728 17.275613
1255 2 15.14073 31.473043 11.32472
1256 2 15.542072 31.084146 12.841156
1257 5 15.897317 31.422457 11.955789
1258 2 60.244691 25.382082 9.203238
1259 2 59.85601 24.664847 10.598371
1260 5 59.701754 24.659173 9.598021
1261 2 52.776091 17.220884 14.401461
1262 2 52.795417 18.753059 13.887688
1263 5 52.198969 17.966222 14.110543
1264 2 14.59669 9.660707 2.752334
1265 2 14.187009 9.449604 1.203305
1266 5 13.833142 9.661461 2.127654
1267 2 10.633175 12.892646 13.099886
1268 2 10.316504 13.846563 11.834319
1269 5 10.668471 12.940036 12.115132
1270 2 25.801456 8.723738 2.987233
1271 2 26.27868 8.417336 1.473869
1272 5 26.415228 9.021343 2.27453
1273 2 2.553041 9.864025 3.494746
1274 2 3.351261 8.505445 3.853912
1275 5 3.441348 9.43589 3.465731
1276 2 29.933838 13.225291 10.263036
1277 2 30.167177 13.904791 8.815373
1278 5 30.616253 13.638079 9.682393
1279 2 55.170481 17.658602 5.507241
1280 2 56.345269 16.875558 6.293758
1281 5 56.021915 17.176076 5.382903
1282 2 5.041168 21.473072 11.841298
1283 2 5.306239 21.038044 13.375046
1284 5 5.082375 21.814757 12.765843
1285 2 48.277139 13.700648 13.038173
1286 2 48.768276 14.715797 14.195822
1287 5 48.010139 14.118405 13.891063
1288 2 4.608259 19.897669 0.987559
1289 2 3.649652 21.198478 1.016924
1290 5 3.793591 20.272261 1.398931
1291 2 19.477942 26.484754 4.488947
1292 2 19.228302 25.270456 5.525795
1293 5 18.777016 25.924312 4.898627
1294 2 61.573688 14.389755 6.891804
1295 2 61.605552 15.352915 5.594421
1296 5 62.16906 14.932947 6.322852
1297 2 10.13833 4.865123 13.130342
1298 2 10.090655 4.053761 11.733447
1299 5 9.878433 4.005524 12.721962
1300 2 28.045919 32.21174 1.878476
1301 2 26.727635 32.664781 2.696264
1302 5 27.206671 32.725293 1.806663
1303 2 59.064929 16.424135 1.860521
1304 2 58.360054 17.275725 3.039437
1305 5 58.528541 16.342906 2.684488
1306 2 56.814028 27.127538 10.920524
1307 2 56.019092 27.366532 12.307194
1308 5 56.572653 26.70438 11.778374
1309 2 9.890483 16.493052 10.206698
1310 2 9.325957 16.943461 11.652498
1311 5 9.097132 16.851404 10.67082
1312 2 36.709375 8.763009 5.077402
1313 2 36.8056 9.735208 3.789976
1314 5 36.582714 9.693934 4.776458
1315 2 10.485449 23.693866 2.069794
1316 2 9.319666 23.338767 1.008309
1317 5 9.659801 24.039351 1.654851
1318 2 12.654263 27.643953 13.885938
1319 2 12.930862 28.582095 12.599362
1320 5 13.367944 28.014723 13.314606
1321 2 13.968043 18.287187 1.062566
1322 2 14.173245 18.55994 2.642248
1323 5 14.601583 18.644458 1.729061
1324 2 54.379404 29.017013 3.776248
1325 2 53.51735 27.996753 4.686098
1326 5 54.396333 28.126946 4.201366
1327 2 13.608157 10.322693 12.468532
1328 2 12.946841 11.580968 13.237492
1329 5 13.686255 10.890574 13.271428
1330 2 49.754335 25.769154 14.165985
1331 2 48.837211 26.057259 15.465129
1332 5 48.895647 26.156127 14.459476
1333 2 56.095921 21.838429 6.307781
1334 2 57.474486 21.354738 5.61677
1335 5 56.881269 21.254182 6.430717
1336 2 57.65291 8.019575 8.013756
1337 2 57.666918 8.202915 9.619398
1338 5 57.072614 8.139286 8.802525
1339 2 45.076157 12.600637 1.918879
1340 2 45.365171 13.922175 1.034626
1341 5 45.012346 12.973845 1.007905
1342 2 32.114159 33.025119 11.071531
1343 2 31.64138 31.510332 11.377793
1344 5 31.575888 32.276843 10.719994
1345 2 52.604498 13.807557 7.454985
1346 2 53.211152 13.136152 8.794045
1347 5 53.414925 13.748683 8.014425
1348 2 52.707524 31.002788 12.98881
1349 2 52.111862 30.288798 11.666956
1350 5 52.959327 30.602141 12.123185
1351 2 42.144812 15.363008 1.268598
1352 2 43.661872 15.579248 1.782081
1353 5 43.053904 15.607105 0.973301
1354 2 1.210407 4.645689 12.23699
1355 2 2.709661 5.067681 11.80565
1356 5 1.779509 5.416045 12.00055
1357 2 57.219377 11.881502 6.629253
1358 2 57.152431 12.443046 8.143216
1359 5 56.923443 12.645803 7.178342
1360 2 58.152879 4.191662 0.998781
1361 2 58.451525 5.328024 2.108461
1362 5 58.275859 4.341414 1.966087
1363 2 30.862566 17.773127 13.429137
1364 2 31.033941 17.30805 11.890882
1365 5 31.426021 17.237946 12.821412
1366 2 20.506984 20.052655 10.189569
1367 2 21.489889 21.050754 9.383595
1368 5 20.952063 20.195575 9.320828
1369 2 24.227111 25.943065 3.400471
1370 2 23.633675 26.039965 4.900585
1371 5 23.594286 25.524 4.030668
1372 2 12.409124 12.104792 7.156188
1373 2 11.380471 12.91177 6.206158
1374 5 11.452626 12.291096 7.002452
1375 2 30.95139 2.565825 15.067761
1376 2 31.616214 1.664262 13.902819
1377 5 31.022143 2.462294 14.089238
1378 2 35.597995 33.254011 0.993743
1379 2 36.866627 32.252778 0.995051
1380 5 36.064993 32.567704 1.526777
1381 2 20.183892 20.287096 7.261763
1382 2 19.315545 18.98017 7.64882
1383 5 19.358816 19.791532 7.045208
1384 2 38.501274 3.094025 4.657653
1385 2 38.632245 1.791425 3.710037
1386 5 38.024548 2.286944 4.350109
1387 2 41.693138 35.420334 8.404126
1388 2 42.300192 35.467217 9.901184
1389 5 42.354998 35.001709 9.004063
1390 2 54.466926 12.994862 17.653925
1391 2 52.924749 12.998047 17.170627
1392 5 53.666059 12.427082 17.556615
1393 2 35.405646 11.669822 9.170474
1394 2 35.685039 10.214833 8.52484
1395 5 35.045977 10.999577 8.542269
1396 2 47.22049 2.03856 15.156455
1397 2 45.829045 1.443937 14.588831
1398 5 46.239496 2.101857 15.239367
1399 2 32.127913 20.234262 2.558477
1400 2 32.564743 20.02161 1.017096
1401 5 31.782399 20.021218 1.659331
1402 2 53.602579 11.334898 3.740958
1403 2 54.283527 12.526656 2.887777
1404 5 53.505327 11.880465 2.924791
1405 2 30.103208 5.31875 12.93329
1406 2 29.926901 6.725233 12.157006
1407 5 30.584959 6.129281 12.643141
1408 2 5.345017 20.728067 7.731852
1409 2 6.255072 19.404453 7.910012
1410 5 6.200763 20.313738 7.468676
1411 2 9.652675 16.464395 8.020393
1412 2 10.501005 17.751023 8.507034
1413 5 10.564534 16.836445 8.078036
1414 2 50.678505 8.538567 2.824262
1415 2 50.576989 10.075955 2.336381
1416 5 50.697083 9.11964 2.027242
1417 2 37.085131 1.587574 19.002588
1418 2 37.84041 2.875135 18.383204
1419 5 37.292878 2.054014 18.158488
1420 2 20.336226 8.835893 12.124561
1421 2 20.500849 7.243311 11.904385
1422 5 19.988005 8.066474 11.614692
1423 2 45.768537 34.279593 3.673432
1424 2 46.251946 34.483399 2.144814
1425 5 45.444524 34.409291 2.750705
1426 2 9.016707 10.856282 13.803476
1427 2 9.024378 10.083009 15.22259
1428 5 8.885823 9.974399 14.225828
1429 2 41.561195 22.284209 5.130532
1430 2 41.622733 22.816625 6.65521
1431 5 41.057545 22.783691 5.81616
1432 2 45.72955 1.01889 6.610886
1433 2 46.85594 2.062993 7.113867
1434 5 45.918878 1.978339 6.740671
1435 2 43.239241 16.790172 16.144135
1436 2 43.757414 16.585317 17.661181
1437 5 43.956643 17.033859 16.775944
1438 2 52.610754 9.890197 9.081797
1439 2 52.588617 10.338398 10.634382
1440 5 53.165802 9.959071 9.894452
1441 2 15.844986 31.433991 6.419551
1442 2 15.308176 31.261449 4.904969
1443 5 15.121407 31.693307 5.801151
1444 2 31.876116 5.686068 7.712298
1445 2 30.869238 4.434605 7.890998
1446 5 31.471411 4.921029 7.238842
1447 2 40.286396 5.168763 2.336339
1448 2 39.596568 5.856006 3.626196
1449 5 39.781186 4.97597 3.16146
1450 2 11.375496 1.746454 5.533867
1451 2 11.229523 3.352144 5.422756
1452 5 11.839553 2.565595 5.239096
1453 2 17.953664 30.637265 12.608762
1454 2 17.916439 31.104749 11.062164
1455 5 18.505107 31.008713 11.879949
1456 2 12.058707 5.411588 1.000119
1457 2 12.784801 5.443699 2.443605
1458 5 12.843516 5.761836 1.484508
1459 2 7.114695 18.211222 4.459935
1460 2 6.961053 18.988778 5.868372
1461 5 7.607396 18.742611 5.129339
1462 2 61.948956 2.447835 0.999014
1463 2 62.161932 2.497775 2.600277
1464 5 61.994663 1.887908 1.809954
1465 2 47.324524 8.806539 5.109796
1466 2 46.666578 9.034505 3.65136
1467 5 46.481229 9.024096 4.64638
1468 2 49.585748 15.347817 8.984342
1469 2 50.39449 16.49516 9.785239
1470 5 49.619149 16.318164 9.159104
1471 2 30.324339 3.019099 5.786447
1472 2 30.769461 2.339298 4.389439
1473 5 30.717779 2.205246 5.39138
1474 2 32.050852 35.422572 11.798475
1475 2 30.725068 34.506158 11.918388
1476 5 31.178528 35.346965 12.25297
1477 2 5.252164 1.8148 10.294076
1478 2 6.465523 2.748173 10.812217
1479 5 5.876361 2.527605 10.01927
1480 2 57.660521 14.32844 2.858184
1481 2 56.246823 14.001105 2.146702
1482 5 56.934354 14.723504 2.319818
1483 2 23.858168 25.573612 8.609571
1484 2 23.859568 25.009602 7.095046
1485 5 23.349831 25.572686 7.764099
1486 2 34.221787 29.938443 4.2001
1487 2 35.665848 29.691226 4.882351
1488 5 35.036563 29.384372 4.151346
1489 2 38.676725 32.228064 2.915233
1490 2 38.403526 32.952472 4.333856
1491 5 38.340856 33.05818 3.329154
1492 2 14.12287 3.362265 16.014972
1493 2 14.795123 3.831809 17.407632
1494 5 14.030576 3.996377 16.765049
1495 2 48.334436 6.798184 13.613149
1496 2 47.369217 7.903183 14.29081
1497 5 47.405954 7.130665 13.637822
1498 2 42.82694 27.990849 10.267742
1499 2 43.83729 28.239351 11.504404
1500 5 43.130885 28.666766 10.918883
1501 2 1.534086 31.947985 8.590537
1502 2 2.476819 32.636751 7.473061
1503 5 1.677291 32.778304 8.077415
1504 2 1.796465 29.544434 6.600328
1505 2 1.505831 31.093349 6.242153
1506 5 1.646728 30.434833 6.997819
1507 2 53.284332 7.19973 13.030335
1508 2 51.877012 7.024696 12.25528
1509 5 52.836126 6.704929 12.304034
1510 2 24.971052 12.601568 6.015277
1511 2 24.772849 11.705027 4.685305
1512 5 24.356762 12.423601 5.26414
1513 2 30.072672 0.959936 8.195113
1514 2 29.794554 1.116658 9.779406
1515 5 29.357732 1.001539 8.873613
1516 2 39.809231 22.701619 17.90099
1517 2 38.925346 23.274549 16.675269
1518 5 38.978582 22.55826 17.388447
1519 2 30.121701 23.818896 1.0006
1520 2 30.352066 25.403654 1.218243
1521 5 29.782919 24.609727 1.483345
1522 2 22.495303 22.411049 14.262821
1523 2 22.821389 23.652858 15.244389
1524 5 22.927379 22.654503 15.115623
1525 2 60.000654 16.739851 9.907897
1526 2 59.753355 16.822191 11.502876
1527 5 60.305176 17.183143 10.734934
1528 2 6.41445 2.995243 7.387879
1529 2 5.594486 3.128771 6.001616
1530 5 6.157721 3.629557 6.677269
1531 2 21.079009 10.909516 6.155755
1532 2 21.677822 11.245014 4.692621
1533 5 21.840201 10.73641 5.552552
1534 2 27.939838 11.705828 12.227359
1535 2 28.074468 10.613007 13.41037
1536 5 28.041169 10.741079 12.406868
1537 2 56.240149 18.175562 11.664471
1538 2 55.744477 18.195248 13.202592
1539 5 55.599014 17.770499 12.295423
1540 2 34.757259 11.166905 5.141169
1541 2 33.801166 10.040229 4.486659
1542 5 34.005762 10.557101 5.332538
1543 2 37.360712 34.905963 16.002284
1544 2 36.168868 34.817599 17.090215
1545 5 36.617 35.41339 16.405571
1546 2 9.472426 18.359525 13.848683
1547 2 8.5306 17.05668 14.014382
1548 5 8.657316 17.922426 13.505505
1549 2 43.415426 11.158414 3.881262
1550 2 44.734357 10.262276 4.144423
1551 5 44.292128 10.909192 3.503752
1552 2 19.195918 22.992335 5.955419
1553 2 18.666009 21.855319 6.974383
1554 5 19.460825 22.170613 6.432732
1555 2 25.976213 13.582091 4.322811
1556 2 26.249775 15.093263 3.819404
1557 5 26.6784 14.193679 3.997044
1558 2 5.674524 20.232467 2.882194
1559 2 4.789956 21.578214 3.017834
1560 5 5.074049 20.728075 3.488027
1561 2 27.580384 29.610398 5.882067
1562 2 28.678672 28.831285 6.775736
1563 5 27.850618 28.718155 6.204723
1564 2 4.365884 29.516281 8.036115
1565 2 4.217901 30.64908 6.892978
1566 5 3.761134 30.211114 7.682964
1567 2 59.276407 32.795997 12.666659
1568 2 58.76786 31.269626 12.81985
1569 5 59.571433 31.881214 12.888835
1570 2 59.5413 19.6083 14.81605
1571 2 60.748643 18.64303 15.28772
1572 5 60.280985 19.523376 15.463263
1573 2 9.78331 22.625452 11.765401
1574 2 10.489996 22.276463 10.35448
1575 5 9.931664 22.960436 10.849427
1576 2 10.87455 26.002281 14.694713
1577 2 10.780418 24.577259 13.938177
1578 5 10.543061 25.077559 14.78546
1579 2 35.545671 19.343026 18.37566
1580 2 34.613306 18.382593 17.470035
1581 5 34.936587 19.332966 17.59968
1582 2 35.826467 5.9527 16.035262
1583 2 37.142653 6.866036 15.822263
1584 5 36.130652 6.870871 15.84119
1585 2 1.110256 10.816798 10.927708
1586 2 0.998968 10.519582 12.512376
1587 5 1.003503 10.096219 11.59299
1588 2 54.393709 13.666309 1.008955
1589 2 53.121413 14.400826 1.682487
1590 5 53.859021 14.495264 0.995796
1591 2 20.910215 18.251798 12.757433
1592 2 20.908126 18.112219 11.147337
1593 5 20.977314 18.765153 11.917673
1594 2 21.994134 5.441756 15.374012
1595 2 21.832094 3.834162 15.409762
1596 5 21.792611 4.653263 14.81643
1597 2 31.012807 29.903831 8.98013
1598 2 31.0763 30.345594 7.42684
1599 5 31.537294 29.808073 8.150085
1600 2 19.352786 2.020876 7.8099
1601 2 20.053154 2.515699 9.179765
1602 5 19.290608 1.973739 8.793334
1603 2 22.678238 8.375441 9.635191
1604 2 22.270373 8.344119 11.1987
1605 5 22.629693 7.792685 10.429716
1606 2 44.449341 30.239232 2.978119
1607 2 45.341493 31.499772 3.454562
1608 5 44.535708 31.219593 2.909826
1609 2 37.091965 2.247839 12.522218
1610 2 37.26504 1.788777 10.982347
1611 5 36.595858 1.942533 11.726041
1612 2 12.022746 31.115674 11.763848
1613 2 13.408557 30.727085 12.498983
1614 5 12.99341 31.291797 11.768722
1615 2 13.894625 7.671954 17.206835
1616 2 15.28986 7.678387 18.022417
1617 5 14.606576 8.260003 17.554045
1618 2 32.136251 4.713361 12.019532
1619 2 32.313806 3.166994 12.45441
1620 5 32.559802 4.121293 12.685334
1621 2 32.801084 15.154671 13.743177
1622 2 34.187259 15.179923 14.573704
1623 5 33.537427 14.587008 14.073008
1624 2 34.805929 4.593362 12.91423
1625 2 34.698588 4.257771 14.491491
1626 5 34.565046 3.886838 13.559234
1627 2 40.522172 8.042017 4.65124
1628 2 41.140658 9.229632 3.746286
1629 5 40.822152 8.98154 4.674473
1630 2 35.100355 8.479718 7.305463
1631 2 34.215759 8.455556 5.953131
1632 5 34.980812 8.916706 6.429117
1633 2 59.765249 5.133688 6.650822
1634 2 60.443627 5.522808 5.236508
1635 5 60.495415 5.653669 6.238866
1636 2 41.182487 14.570854 12.112875
1637 2 42.280348 14.32075 10.953545
1638 5 41.620925 13.86965 11.574993
1639 2 25.44288 22.946047 13.440393
1640 2 24.586745 21.606172 13.729641
1641 5 25.054427 22.394032 14.159847
1642 2 51.406788 16.326406 3.681017
1643 2 51.815278 16.265761 2.118534
1644 5 51.839737 15.76297 2.996674
1645 2 3.632402 24.419434 4.018814
1646 2 3.178405 22.895415 3.730459
1647 5 3.129593 23.847858 3.391347
1648 2 21.036196 35.396185 12.354603
1649 2 21.086999 34.190248 13.429327
1650 5 21.232676 35.183202 13.297612
1651 2 22.647718 18.405377 7.964894
1652 2 22.420827 19.98354 7.700664
1653 5 22.062192 19.056349 7.510333
1654 2 46.351882 16.958242 17.291829
1655 2 45.903329 15.508998 17.848955
1656 5 45.944088 16.099583 17.027934
1657 2 25.062487 27.351767 8.131429
1658 2 24.517912 27.058527 6.63833
1659 5 24.556499 27.744847 7.381299
1660 2 5.516899 4.805613 13.806051
1661 2 5.690603 4.106304 12.359438
1662 5 5.023829 4.358108 13.078141
1663 2 21.283759 2.342712 13.104857
1664 2 21.662789 3.875971 12.762294
1665 5 21.906078 2.908759 12.589551
1666 2 31.46681 15.830168 2.402408
1667 2 32.269037 15.996132 1.009288
1668 5 31.424172 15.637294 1.435861
1669 2 12.064521 15.119109 6.299846
1670 2 10.885428 16.183601 6.002369
1671 5 11.851014 16.082186 6.288525
1672 2 34.332564 32.558873 17.622
1673 2 34.091696 34.152221 17.499031
1674 5 33.675705 33.275925 17.788143
1675 2 38.935149 3.390671 12.89082
1676 2 39.567536 4.46872 13.915413
1677 5 39.747533 3.91459 13.087724
1678 2 27.27826 8.407938 12.322523
1679 2 26.218061 8.796289 13.478835
1680 5 26.341704 8.291947 12.609997
1681 2 14.24693 33.430009 10.856945
1682 2 15.62988 33.705154 10.067235
1683 5 15.201376 33.645752 10.982322
1684 2 28.260188 21.349303 15.141602
1685 2 27.019602 22.357204 15.380307
1686 5 28.01599 22.232362 15.507397
1687 2 7.102692 12.825563 11.783701
1688 2 8.528052 12.625683 12.518748
1689 5 7.750007 12.144875 12.085161
1690 2 10.741329 28.729816 13.840512
1691 2 9.246866 28.49975 14.411077
1692 5 10.225806 28.286811 14.555504
1693 2 32.190686 6.59736 1.029985
1694 2 32.103652 5.007208 1.305189
1695 5 31.581622 5.82163 1.007317
1696 2 7.75669 15.373952 7.788051
1697 2 6.402818 15.936408 7.107927
1698 5 6.803951 15.169954 7.633444
1699 2 17.185158 12.291857 2.892877
1700 2 17.987069 12.457346 1.499518
1701 5 17.974624 11.97842 2.391148
1702 2 25.21099 33.845159 3.767492
1703 2 25.068782 33.798526 5.376684
1704 5 24.568266 33.702395 4.502173
1705 2 19.697853 4.860927 12.661639
1706 2 19.317267 4.979502 14.227842
1707 5 20.043281 5.142716 13.541699
1708 2 53.951758 24.180832 14.239443
1709 2 54.248753 24.075242 15.824543
1710 5 54.67523 24.131356 14.908303
1711 2 38.833311 29.259547 10.556128
1712 2 38.024536 29.405205 9.164523
1713 5 38.080118 29.72656 10.122734
1714 2 26.03742 0.999921 6.781795
1715 2 25.595305 1.240891 8.317491
1716 5 26.186999 1.57669 7.568049
1717 2 22.217069 17.581825 16.180546
1718 2 21.882192 18.210299 14.729763
1719 5 21.478963 17.876503 15.596085
1720 2 17.613688 24.180097 4.232988
1721 2 17.329644 24.17799 5.823966
1722 5 16.931402 24.382531 4.91617
1723 2 37.478045 1.103261 6.122101
1724 2 38.81809 1.926033 6.495226
1725 5 38.408931 1.002338 6.43274
1726 2 56.701228 22.224662 8.440085
1727 2 55.505057 21.610461 9.336649
1728 5 55.72683 22.072271 8.46368
1729 2 61.934712 20.748246 14.685262
1730 2 61.346705 22.167957 15.185825
1731 5 62.159663 21.564963 15.190832
1732 2 7.939626 33.888165 10.349399
1733 2 7.85568 32.535076 9.469626
1734 5 8.023428 32.906321 10.396214
1735 2 23.030796 2.142246 14.426813
1736 2 22.048483 1.000593 15.012976
1737 5 22.986149 1.379856 15.051313
1738 2 38.923272 6.732233 6.317343
1739 2 38.870858 7.268984 7.840841
1740 5 38.365923 7.22577 6.964655
1741 2 43.365156 8.19105 16.238889
1742 2 43.323527 7.076743 15.069068
1743 5 43.569539 8.034179 15.286603
1744 2 17.322063 19.014747 15.201754
1745 2 18.283765 19.285785 16.472016
1746 5 18.238885 18.886903 15.542819
1747 2 54.090723 13.177132 15.313717
1748 2 53.520822 13.45587 13.827307
1749 5 54.343197 13.498612 14.415864
1750 2 33.969982 1.028116 14.000149
1751 2 35.542542 1.178196 13.658932
1752 5 34.87325 0.992525 14.395208
1753 2 55.43613 32.521192 1.638602
1754 2 54.27009 33.518756 1.131538
1755 5 55.235944 33.24605 1.000059
1756 2 4.421847 4.300526 16.050368
1757 2 5.894079 3.692127 16.32291
1758 5 4.957325 3.473049 16.008227
1759 2 19.585091 17.025206 16.729845
1760 2 18.948716 16.02956 15.627297
1761 5 19.795813 16.498061 15.923032
1762 2 12.645488 15.574563 17.098579
1763 2 13.28469 14.273822 16.383463
1764 5 12.54769 14.598192 16.996769
1765 2 18.940085 10.348067 7.243627
1766 2 19.059186 9.771098 5.738696
1767 5 18.463316 10.27539 6.383022
1768 2 44.154995 32.956458 1.61344
1769 2 45.687792 32.45626 1.502847
1770 5 44.903112 32.828739 0.98317
1771 2 13.626553 13.91181 7.461094
1772 2 13.357696 14.154831 9.036071
1773 5 12.959988 14.241515 8.109334
1774 2 57.232468 3.172187 7.618081
1775 2 57.354645 4.183763 6.363616
1776 5 57.191612 3.221982 6.633661
1777 2 41.746138 24.995305 2.602501
1778 2 41.373415 25.744674 3.985041
1779 5 42.098183 25.606677 3.29208
1780 2 39.317149 24.579975 9.268035
1781 2 40.089603 24.281418 10.655866
1782 5 40.211153 24.529366 9.682072
1783 2 54.412407 27.826263 14.519754
1784 2 55.451467 26.610867 14.754411
1785 5 55.351849 27.552 14.395422
1786 2 31.938174 15.152852 8.431661
1787 2 31.696463 16.511169 9.273354
1788 5 32.3726 15.985379 8.733992
1789 2 40.936224 3.095421 11.179775
1790 2 40.947831 1.710922 10.346153
1791 5 40.354372 2.423858 10.751193
1792 2 42.965235 14.17038 3.32215
1793 2 43.047664 13.449924 1.877836
1794 5 42.98778 13.290961 2.875669
1795 2 56.335953 12.723033 3.962258
1796 2 57.456688 13.307184 4.96954
1797 5 56.548784 13.480736 4.557086
1798 2 23.439514 19.758843 14.862576
1799 2 23.925304 18.96808 16.185678
1800 5 24.009314 19.831762 15.6646
1801 2 10.177405 32.721622 14.568122
1802 2 9.81583 32.909484 13.004195
1803 5 10.324696 33.303682 13.785343
1804 2 24.498196 18.502728 18.25819
1805 2 25.624077 19.597639 18.63958
1806 5 25.462256 18.620418 18.431301
1807 2 36.356466 32.171576 3.671185
1808 2 34.861472 31.786228 3.193278
1809 5 35.400615 32.300055 3.878723
1810 2 48.221479 31.540029 5.687967
1811 2 47.778327 31.113166 4.193544
1812 5 47.784822 30.826973 5.164409
1813 2 22.264179 30.452337 16.455549
1814 2 23.412098 30.232359 15.339401
1815 5 22.651577 29.787778 15.83788
1816 2 28.035157 27.888166 3.874001
1817 2 28.849374 29.109781 3.198276
1818 5 28.476528 28.748995 4.067383
1819 2 10.185311 8.327317 12.963867
1820 2 11.267782 7.159543 12.687356
1821 5 11.044555 7.954183 13.273226
1822 2 30.02879 10.104819 5.916611
1823 2 30.040215 10.02022 7.53049
1824 5 29.852958 9.504823 6.679709
1825 2 33.586437 1.001812 10.676441
1826 2 34.191603 1.588685 9.297583
1827 5 34.374244 1.446514 10.282954
1828 2 22.834669 15.952539 18.556922
1829 2 23.032528 15.699383 16.973047
1830 5 23.36955 15.453276 17.895205
1831 2 35.797174 15.256389 2.786913
1832 2 36.045803 13.866907 3.573945
1833 5 35.343229 14.458952 3.14921
1834 2 42.552931 24.028856 10.265131
1835 2 42.961163 23.204516 8.936332
1836 5 42.263225 23.811428 9.347511
1837 2 46.030769 26.295872 6.200479
1838 2 46.735771 26.077218 7.638206
1839 5 46.314394 26.761417 7.022705
1840 2 53.365551 13.962146 11.510871
1841 2 52.522666 12.682758 12.025268
1842 5 52.988294 13.095893 11.227122
1843 2 7.580842 24.95538 13.281074
1844 2 8.635036 25.899061 14.062122
1845 5 8.516902 25.266864 13.280523
1846 2 48.214972 7.059406 3.525514
1847 2 48.394075 6.853034 5.118382
1848 5 48.784373 7.295288 4.295822
1849 2 29.61451 19.909492 17.122305
1850 2 30.32199 19.278953 15.813187
1851 5 29.527405 19.811266 16.144554
1852 2 30.112489 11.398903 12.066357
1853 2 31.567325 10.811697 12.454346
1854 5 30.769576 11.330654 12.79903
1855 2 61.040928 8.196913 8.897321
1856 2 60.983524 8.573372 10.467951
1857 5 60.463425 8.579648 9.599628
1858 2 48.853352 18.865257 18.04116
1859 2 48.72317 18.432569 16.489474
1860 5 48.218426 18.53867 17.360395
1861 2 17.479824 32.315131 5.241707
1862 2 17.228522 33.872115 5.594612
1863 5 16.79786 33.027976 5.238962
1864 2 15.5213 23.966585 15.711623
1865 2 16.21897 25.413028 15.530093
1866 5 15.372322 24.936416 15.813915
1867 2 8.414864 16.615985 5.238301
1868 2 8.102575 17.267829 6.683802
1869 5 8.838526 16.992332 6.045832
1870 2 27.335637 22.638586 4.28803
1871 2 25.877102 23.273259 4.00209
1872 5 26.607975 22.684201 3.623457
1873 2 1.770465 14.700646 2.422279
1874 2 2.453093 13.796771 3.575068
1875 5 1.909215 14.631549 3.39655
1876 2 20.364938 35.037858 5.050708
1877 2 18.834591 34.943783 4.539745
1878 5 19.720915 35.413601 4.404734
1879 2 1.737805 27.619644 7.783159
1880 2 1.265147 26.992454 9.195647
1881 5 1.892074 26.87359 8.409924
1882 2 1.272851 32.826861 2.912306
1883 2 1.702881 32.658595 4.461066
1884 5 0.999388 32.426309 3.771379
1885 2 24.379773 22.376368 10.598233
1886 2 25.816534 22.09597 11.283062
1887 5 25.3398 22.257264 10.404861
1888 2 51.955059 1.003973 4.337983
1889 2 53.046231 2.107002 4.790271
1890 5 52.390199 1.412042 5.123708
1891 2 2.207103 31.418219 13.917288
1892 2 2.820087 31.421154 15.41266
1893 5 2.691166 31.972938 14.573946
1894 2 55.551408 25.453726 16.944729
1895 2 57.088476 25.402474 16.448048
1896 5 56.140685 25.126416 16.224415
1897 2 35.731718 13.274587 1.020546
1898 2 36.806782 14.480969 0.992723
1899 5 36.553898 13.613034 1.447986
1900 2 36.081419 19.425351 10.866502
1901 2 35.191273 19.814782 9.575038
1902 5 35.927808 20.130179 10.193559
1903 2 30.840385 32.813222 16.584721
1904 2 31.246422 33.810624 17.789801
1905 5 31.564888 33.041311 17.214246
1906 2 38.44005 7.598059 4.307403
1907 2 37.098852 7.341297 3.44302
1908 5 38.103467 7.453598 3.391393
1909 2 18.335019 14.580912 2.051985
1910 2 19.53458 14.862062 1.006087
1911 5 19.295242 14.797801 1.987471
1912 2 4.20849 7.736048 0.999916
1913 2 5.168093 8.6377 1.936976
1914 5 5.151896 7.930595 1.212913
1915 2 50.106658 23.135304 11.253273
1916 2 49.682045 22.985945 9.701084
1917 5 49.529571 23.516243 10.549649
1918 2 2.879337 33.991876 1.000941
1919 2 2.916016 35.416748 1.76271
1920 5 2.330545 34.775099 1.243058
1921 2 18.235585 24.091546 8.260664
1922 2 19.629566 24.46095 7.531108
1923 5 19.124835 23.735535 8.024613
1924 2 17.446421 1.710647 4.388899
1925 2 17.742292 1.001012 5.810439
1926 5 18.156121 1.297501 4.935586
1927 2 50.512059 8.835183 10.537785
1928 2 49.191705 8.868429 9.606411
1929 5 49.977552 9.41131 9.941454
1930 2 6.391028 6.653038 11.964607
1931 2 4.821274 6.834313 11.625625
1932 5 5.592831 6.179177 11.630589
1933 2 6.23428 5.840367 16.653257
1934 2 5.52157 6.545777 15.385844
1935 5 6.02007 6.715019 16.250357
1936 2 39.222802 18.335387 12.24205
1937 2 38.811522 18.15384 10.689701
1938 5 38.474186 18.103864 11.642715
1939 2 53.150596 23.224248 4.471575
1940 2 53.867449 23.196874 5.91977
1941 5 53.122628 23.615246 5.376876
1942 2 59.028523 16.468429 16.923965
1943 2 60.335714 15.876872 17.667744
1944 5 59.333581 15.781071 17.562487
1945 2 9.630779 30.641385 14.105967
1946 2 9.358948 30.808033 12.521596
1947 5 10.077069 30.736976 13.231371
1948 2 14.270673 10.831551 5.494697
1949 2 14.585794 11.723005 6.805386
1950 5 14.933928 11.440426 5.897928
1951 2 15.313504 35.326381 2.499057
1952 2 15.510657 34.757173 0.999381
1953 5 15.861769 35.415135 1.68373
1954 2 18.931899 13.413243 3.819646
1955 2 18.811823 14.184783 5.234638
1956 5 18.436544 14.120482 4.29679
1957 2 59.88787 10.476458 10.607025
1958 2 59.421583 10.346852 12.148996
1959 5 59.305016 10.877139 11.29475
1960 2 50.799507 22.87819 1.478143
1961 2 50.922651 23.861332 2.754921
1962 5 50.830939 23.826712 1.74749
1963 2 37.200549 4.753724 5.821074
1964 2 36.666027 6.169627 5.254153
1965 5 37.437648 5.514706 5.239765
1966 2 28.024689 8.498873 7.379914
1967 2 27.209141 9.493679 8.358248
1968 5 28.125115 9.124899 8.135716
1969 2 10.840184 19.815108 7.824209
1970 2 11.544894 20.423884 9.145069
1971 5 11.242076 20.63296 8.202139
1972 2 19.535288 12.027676 11.777015
1973 2 20.439721 12.867727 12.820189
1974 5 19.499524 12.725714 12.473216
1975 2 49.446617 16.84406 15.150493
1976 2 50.764996 16.130517 14.546651
1977 5 50.079871 16.100797 15.291129
1978 2 27.683665 23.154339 8.670904
1979 2 27.45498 23.160277 10.270768
1980 5 27.681112 23.734719 9.46864
1981 2 34.710898 12.921298 11.887513
1982 2 34.15403 12.594977 13.36917
1983 5 34.448145 12.186471 12.491021
1984 2 31.788421 21.257286 9.790782
1985 2 33.044258 20.284853 9.492212
1986 5 32.693963 21.015601 10.0987
1987 2 17.416485 16.540502 4.98134
1988 2 16.810869 15.102454 5.402224
1989 5 16.933582 16.062994 5.696897
1990 2 17.84093 6.367549 7.588697
1991 2 16.882393 5.976521 6.347649
1992 5 17.176092 5.708075 7.27835
1993 2 15.575389 1.793236 17.13272
1994 2 17.005038 1.110366 16.813835
1995 5 16.09511 1.334091 16.431074
1996 2 33.825148 16.935539 12.953483
1997 2 35.321589 16.339893 13.08677
1998 5 34.767415 17.186749 13.10267
1999 2 37.348809 26.71316 6.541501
2000 2 37.095682 26.241056 8.066277
2001 5 37.514824 25.981627 7.182227
2002 2 16.889297 27.169644 1.821891
2003 2 17.04179 26.656206 3.346694
2004 5 17.382382 26.54093 2.400524
2005 2 28.706526 27.706701 8.666645
2006 2 29.612129 28.418479 9.800289
2007 5 29.388067 28.404715 8.813307
2008 2 38.629333 11.415635 15.874767
2009 2 37.176419 11.217199 15.195387
2010 5 37.938776 10.743568 15.663375
2011 2 25.624548 28.918555 12.121932
2012 2 26.70433 30.02589 12.590736
2013 5 26.589181 29.12378 12.146365
2014 2 50.260969 2.08623 2.435002
2015 2 50.639133 1.454017 0.996533
2016 5 50.662368 1.298939 1.996502
2017 2 11.785589 24.135237 10.404687
2018 2 11.554545 23.911796 11.988539
2019 5 12.095332 23.617408 11.185163
2020 2 4.274097 6.247893 17.565131
2021 2 3.688839 7.463854 16.675858
2022 5 4.257582 7.230599 17.480004
2023 2 25.484128 33.389178 10.283253
2024 2 24.798538 34.783589 9.838866
2025 5 25.544085 34.130133 9.6347
2026 2 55.092073 19.897095 6.557661
2027 2 53.603137 20.52387 6.603693
2028 5 54.210942 19.814585 6.993586
2029 2 35.174078 24.209719 8.113407
2030 2 34.610402 23.632612 6.71301
2031 5 34.393465 23.77935 7.690729
2032 2 61.838174 15.969004 12.381384
2033 2 60.491833 15.137701 12.710318
2034 5 61.076311 15.909645 13.005301
2035 2 62.158979 15.818867 10.206234
2036 2 62.044787 17.037986 9.151433
2037 5 62.054724 16.030495 9.248332
2038 2 35.395447 6.717911 2.198235
2039 2 34.378737 6.391966 0.984993
2040 5 34.695098 7.109878 1.624559
2041 2 48.506101 26.862952 11.871413
2042 2 47.732557 28.117484 11.208333
2043 5 47.665476 27.132362 11.430961
2044 2 41.736976 26.917763 5.936837
2045 2 41.054222 27.288765 7.353911
2046 5 41.370432 26.528123 6.765725
2047 2 22.640895 15.016763 2.2379
2048 2 23.793194 15.843496 3.012894
2049 5 22.968494 15.92684 2.431988
2050 2 23.724548 3.287762 6.247501
2051 2 23.643225 4.490475 7.323961
2052 5 23.715605 3.486918 7.213673
2053 2 42.128424 30.473601 12.802473
2054 2 42.798481 29.337404 13.736269
2055 5 41.922435 29.711266 13.393781
2056 2 26.603224 11.148063 3.61749
2057 2 26.857706 11.130039 2.021617
2058 5 27.002728 11.657608 2.873184
2059 2 39.717782 30.07989 13.178865
2060 2 39.626588 30.99198 14.509906
2061 5 39.451854 30.070691 14.128827
2062 2 25.216221 17.819088 3.946701
2063 2 25.029277 19.40716 4.181166
2064 5 25.3191 18.700906 3.516534
2065 2 41.045218 10.832645 5.845578
2066 2 41.251048 11.060321 7.432302
2067 5 41.325641 10.387277 6.679989
2068 2 20.565395 35.051309 7.634036
2069 2 22.144405 34.775059 7.428348
2070 5 21.370932 35.371676 7.16318
2071 2 53.004634 6.063721 4.53748
2072 2 52.539164 4.561707 4.164402
2073 5 53.317364 5.208915 4.157035
2074 2 56.205256 27.544963 17.159483
2075 2 57.13659 27.518633 15.838945
2076 5 57.091247 27.801675 16.809696
2077 2 33.040765 35.414525 7.370368
2078 2 31.749771 34.737762 6.672355
2079 5 32.05428 35.413679 7.361512
2080 2 1.823183 24.797739 11.882291
2081 2 2.126653 24.150247 13.33162
2082 5 1.395358 24.465093 12.706635
2083 2 3.896799 25.446945 2.091142
2084 2 4.797624 24.676044 0.992905
2085 5 4.005173 25.292207 1.122874
2086 2 34.651634 21.423261 3.131708
2087 2 34.215358 20.815124 4.564094
2088 5 33.966935 20.876314 3.584773
2089 2 45.870276 27.493197 4.26015
2090 2 44.283737 27.737669 4.07301
2091 5 45.023467 27.6114 4.752261
2092 2 59.108903 17.848872 7.44525
2093 2 59.175117 18.628438 8.859388
2094 5 58.729052 18.605901 7.951068
2095 2 42.201239 18.669631 8.824536
2096 2 42.594544 17.831781 10.149381
2097 5 42.066749 17.808132 9.286015
2098 2 30.430894 26.895743 7.56773
2099 2 31.016009 26.074707 6.304624
2100 5 30.98498 26.11952 7.315345
2101 2 39.562922 4.045493 6.333127
2102 2 40.571153 5.289611 6.115099
2103 5 40.470729 4.374359 6.535523
2104 2 4.730903 9.374139 17.335865
2105 2 6.068181 9.172192 18.220626
2106 5 5.677926 9.101713 17.289357
2107 2 44.422789 22.65319 17.383557
2108 2 45.13658 21.402458 18.117088
2109 5 45.227683 22.082865 17.373264
2110 2 60.349228 34.179232 16.316234
2111 2 60.164138 33.630442 17.82503
2112 5 60.496374 33.396243 16.898048
2113 2 5.600445 8.709856 10.780442
2114 2 5.420618 9.312219 9.291578
2115 5 6.095186 9.067085 10.005296
2116 2 25.680152 29.616581 6.989739
2117 2 24.868992 29.777678 8.37825
2118 5 24.828418 29.927957 7.378102
2119 2 10.409056 24.783765 8.815696
2120 2 11.462521 25.999403 8.659712
2121 5 11.212796 25.07745 8.324797
2122 2 4.429485 8.171846 14.384049
2123 2 5.866672 7.908278 13.693453
2124 5 4.867217 7.927081 13.534512
2125 2 15.961983 7.130045 8.437648
2126 2 15.668811 7.707658 6.957003
2127 5 16.163652 7.875591 7.82387
2128 2 10.499904 22.401456 3.850981
2129 2 8.936397 22.6483 4.177183
2130 5 9.59743 22.018826 3.739777
2131 2 19.050139 22.243491 14.390149
2132 2 18.244876 20.842277 14.396893
2133 5 18.338826 21.736361 13.931799
2134 2 34.271171 16.613533 1.68078
2135 2 34.590352 17.177107 3.161457
2136 5 34.158257 17.394851 2.272408
2137 2 38.097515 32.129738 9.971811
2138 2 37.365425 33.281355 9.105948
2139 5 38.230308 32.771441 9.234374
2140 2 47.788031 17.040343 2.334974
2141 2 47.294316 17.844818 1.02312
2142 5 48.105077 17.502309 1.523001
2143 2 27.334985 24.16998 5.883418
2144 2 25.947641 24.035371 6.701375
2145 5 26.940236 23.838534 6.724576
2146 2 50.097886 34.732348 15.271686
2147 2 49.796116 35.14392 16.805126
2148 5 49.387777 34.776166 15.9551
2149 2 28.409383 18.037044 4.899811
2150 2 27.753747 18.996016 3.77624
2151 5 28.526507 18.374977 3.980402
2152 2 60.296636 25.233254 5.303134
2153 2 59.999361 23.761168 4.70607
2154 5 59.748969 24.740135 4.647295
2155 2 26.949183 9.286414 4.778682
2156 2 28.43162 8.656578 4.911284
2157 5 27.479611 8.60149 5.250653
2158 2 53.825945 17.829667 8.172551
2159 2 55.376953 18.122778 7.825626
2160 5 54.696842 17.395962 8.00924
2161 2 52.134493 22.948783 8.006976
2162 2 53.608969 22.294319 7.909541
2163 5 53.097936 23.157289 8.046128
2164 2 13.159696 17.277668 15.453894
2165 2 12.504649 15.897348 14.927085
2166 5 13.015227 16.725895 14.648968
2167 2 30.858235 7.612347 14.246775
2168 2 31.225384 7.987952 15.775179
2169 5 30.630933 7.417847 15.186847
2170 2 50.813303 5.870896 4.547199
2171 2 50.382781 6.372252 3.072347
2172 5 50.851074 6.6389 3.929159
2173 2 24.479223 4.402101 15.665614
2174 2 25.203793 3.895295 14.312825
2175 5 24.506478 3.665746 15.009664
2176 2 56.2885 24.982089 3.386648
2177 2 55.479194 26.218732 4.040586
2178 5 56.232853 25.558716 4.185169
2179 2 27.863252 5.059003 1.932362
2180 2 27.679355 4.648454 3.484627
2181 5 28.242484 4.505716 2.655748
2182 2 54.983414 6.790669 8.498319
2183 2 54.315396 5.751932 9.540755
2184 5 55.032948 6.456408 9.425167
2185 2 56.910059 23.574433 14.619818
2186 2 57.458869 23.451605 13.104689
2187 5 57.72184 23.41791 14.08154
2188 2 35.992345 21.833793 13.548695
2189 2 35.9325 23.066923 12.505765
2190 5 35.857754 22.808789 13.481627
2191 2 35.31645 32.792734 7.56904
2192 2 35.202444 32.887372 9.178369
2193 5 34.885987 33.289162 8.304901
2194 2 35.726965 17.596066 15.646898
2195 2 37.332489 17.503177 15.487016
2196 5 36.558624 17.36522 16.124691
2197 2 56.951832 31.466236 5.012699
2198 2 57.677658 30.17161 5.652242
2199 5 57.813647 31.129561 5.354979
2200 2 10.822821 8.939524 7.176702
2201 2 11.337925 9.560383 8.577094
2202 5 10.899392 9.777817 7.691126
2203 2 55.047859 5.28769 11.672812
2204 2 55.381313 5.697732 13.200087
2205 5 55.010336 6.03171 12.31954
2206 2 43.426531 17.326176 3.09815
2207 2 43.068618 18.310134 1.867045
2208 5 43.811468 17.790906 2.317714
2209 2 19.161385 11.242305 4.091973
2210 2 19.776055 10.748073 2.681366
2211 5 19.819925 10.630325 3.685726
2212 2 36.088724 31.733703 10.829197
2213 2 35.989259 30.127712 10.678224
2214 5 35.854785 31.01006 10.20083
2215 2 15.856814 21.126983 1.171685
2216 2 17.442785 20.821765 1.113078
2217 5 16.521527 20.421465 0.988294
2218 2 21.357313 33.106018 0.995458
2219 2 19.953854 33.774842 1.436899
2220 5 20.391389 32.929972 1.091522
2221 2 22.352817 9.379355 16.519175
2222 2 22.354705 10.017212 18.004109
2223 5 22.148572 10.198348 17.029826
2224 2 51.74233 13.766343 15.321449
2225 2 51.358562 13.853622 13.753967
2226 5 50.983375 13.783399 14.691427
2227 2 45.777436 27.540935 10.379353
2228 2 45.646167 27.870076 8.802543
2229 5 46.194769 28.038041 9.63642
2230 2 16.335878 29.053345 11.33054
2231 2 16.146713 29.226095 9.734837
2232 5 16.266062 29.722372 10.608903
2233 2 46.618822 19.827796 18.543005
2234 2 46.111158 19.141543 17.170697
2235 5 45.871312 19.328964 18.136033
2236 2 20.978404 16.14901 13.840368
2237 2 21.652671 16.215593 12.373117
2238 5 21.302974 15.594489 13.091775
2239 2 21.981651 20.198091 5.572166
2240 2 23.355694 20.779731 4.9512
2241 5 22.421362 21.022488 5.255536
2242 2 53.026366 27.80312 11.11867
2243 2 53.166059 28.006774 12.715826
2244 5 52.561402 28.149656 11.916763
2245 2 32.128155 1.648375 8.535163
2246 2 32.11371 3.138321 9.161062
2247 5 31.612042 2.488442 8.56902
2248 2 44.188236 11.776624 13.279678
2249 2 43.481305 12.026224 14.711405
2250 5 43.629171 11.350893 13.972087
2251 2 25.004877 15.386938 13.878618
2252 2 26.106191 15.960216 14.913198
2253 5 25.630861 16.132912 14.036406
2254 2 24.496103 31.716497 5.799844
2255 2 24.958232 31.543155 4.26092
2256 5 25.126609 31.237814 5.211153
2257 2 4.070204 13.769959 1.956448
2258 2 4.113318 15.383018 1.866579
2259 5 4.19518 14.590071 2.490327
2260 2 2.27492 20.568376 3.787816
2261 2 1.725337 19.17021 3.19201
2262 5 2.407164 19.907804 3.067131
2263 2 34.349822 15.025219 16.762306
2264 2 34.547423 14.670634 18.326633
2265 5 34.735655 15.357406 17.6073
2266 2 7.17484 19.744832 16.719797
2267 2 7.486506 21.005391 17.681957
2268 5 6.762875 20.523783 17.163364
2269 2 38.472793 22.792386 10.736399
2270 2 37.050413 22.077649 10.457329
2271 5 37.587202 22.609516 11.130755
2272 2 43.838677 16.657509 8.662678
2273 2 43.672242 15.915389 10.088669
2274 5 44.340395 16.303143 9.434646
2275 2 6.596802 35.415202 14.212347
2276 2 6.140323 35.414147 15.762676
2277 5 5.81806 35.310187 14.808807
2278 2 58.51712 33.58389 5.245608
2279 2 58.130375 33.89658 3.7079
2280 5 57.783719 33.535318 4.587585
2281 2 48.228961 3.743997 4.633257
2282 2 47.098349 2.65198 5.008906
2283 5 47.772013 2.932624 4.30752
2284 2 24.257256 9.116436 0.9608
2285 2 23.673052 8.878958 2.44882
2286 5 24.085143 8.425223 1.643319
2287 2 19.982455 1.808388 14.796513
2288 2 18.84348 1.000635 15.610249
2289 5 19.180553 1.244219 14.68744
2290 2 46.581581 32.95772 15.497844
2291 2 46.42066 33.04761 17.103434
2292 5 46.647102 32.43375 16.331147
2293 2 56.006936 14.231678 8.711439
2294 2 54.808305 15.315732 8.713717
2295 5 55.384076 14.725244 8.126914
2296 2 18.339678 27.95374 5.66729
2297 2 19.249869 28.732664 6.75206
2298 5 19.22519 27.957091 6.102133
2299 2 18.901711 5.938039 5.473088
2300 2 19.849492 6.4135 6.692737
2301 5 19.618052 5.639931 6.082365
2302 2 19.20282 17.815693 4.82187
2303 2 19.24489 18.030662 3.220647
2304 5 19.704676 18.253903 4.09431
2305 2 6.093897 33.128479 16.123298
2306 2 5.912182 33.499909 17.68564
2307 5 5.490469 33.568284 16.768029
2308 2 43.017318 25.441641 18.91499
2309 2 43.862905 25.635883 17.551484
2310 5 43.857552 25.193134 18.461689
2311 2 54.236891 6.235737 6.351799
2312 2 53.356939 5.630472 7.564744
2313 5 54.100872 5.432151 6.907659
2314 2 49.409755 8.841965 14.631223
2315 2 48.179198 9.801117 15.05271
2316 5 49.04706 9.754224 14.53392
2317 2 5.768832 23.010705 14.784385
2318 2 4.710911 23.953583 15.561353
2319 5 5.604395 23.93546 15.08608
2320 2 14.798948 20.534165 5.582116
2321 2 15.074474 19.931204 4.108203
2322 5 14.420483 19.953097 4.880436
2323 2 56.105225 8.101036 18.456472
2324 2 56.556935 6.904545 17.468412
2325 5 56.154158 7.119369 18.371822
2326 2 39.023114 2.022451 0.974592
2327 2 39.6058 3.098458 2.030331
2328 5 39.677919 2.752492 1.081841
2329 2 48.237813 27.776545 7.360124
2330 2 48.235891 27.293445 8.902365
2331 5 47.986411 28.047413 8.274815
2332 2 61.257876 14.935923 15.414895
2333 2 62.159259 13.679666 14.944551
2334 5 61.230592 13.968151 15.225409
2335 2 32.748125 32.939921 5.890373
2336 2 32.397282 31.36569 5.993327
2337 5 32.371639 32.249498 6.486027
2338 2 16.531887 9.892115 8.621906
2339 2 16.519272 10.787705 7.276671
2340 5 15.963418 10.185787 7.871018
2341 2 37.807517 23.101015 8.662957
2342 2 37.391399 23.576724 7.175528
2343 5 38.075283 23.060467 7.714332
2344 2 15.866234 17.038614 3.500374
2345 2 15.992606 15.431415 3.387083
2346 5 16.369112 16.312532 3.060887
2347 2 42.611925 19.41266 18.707316
2348 2 42.98707 20.944619 18.354806
2349 5 43.25253 20.13672 18.903766
2350 2 28.205765 26.989805 10.710562
2351 2 28.033236 27.467055 12.244955
2352 5 28.110498 27.784703 11.287011
2353 2 44.247331 8.076853 3.892326
2354 2 43.513314 6.95561 4.795613
2355 5 43.967378 7.131017 3.908153
2356 2 7.037819 20.939943 4.456484
2357 2 7.732811 21.109195 3.007265
2358 5 7.648095 20.504996 3.814912
2359 2 28.838279 14.259996 15.49384
2360 2 27.357714 14.564802 16.065605
2361 5 27.911255 14.46302 15.224321
2362 2 13.659979 21.088887 1.103012
2363 2 12.109727 20.657568 1.253276
2364 5 13.029438 20.341448 0.972691
2365 2 10.128645 21.409182 1.690575
2366 2 10.055481 19.818102 1.416699
2367 5 9.964511 20.732321 0.991898
2368 2 37.05333 7.580594 12.118944
2369 2 37.299539 7.468436 13.712273
2370 5 37.692952 7.267384 12.801596
2371 2 54.222159 8.634616 5.595492
2372 2 53.754597 8.532709 7.139155
2373 5 53.515339 8.283907 6.18764
2374 2 32.323304 6.71869 9.637254
2375 2 32.325523 6.875512 11.245762
2376 5 32.906302 6.878951 10.41678
2377 2 5.289213 22.068593 18.551012
2378 2 5.04398 22.297022 16.970007
2379 5 5.719642 22.378619 17.719239
2380 2 24.115832 1.185448 3.907156
2381 2 24.243372 1.000074 5.507551
2382 5 24.167954 1.678413 4.760092
2383 2 19.501029 31.991745 4.286592
2384 2 20.209911 32.800898 5.492683
2385 5 19.546333 32.871041 4.731584
2386 2 14.187892 17.770969 4.720361
2387 2 14.61128 18.16211 6.230211
2388 5 14.959849 17.866135 5.327202
2389 2 40.339303 15.170051 4.839646
2390 2 38.959276 15.120303 5.679257
2391 5 39.364722 15.306713 4.770746
2392 2 4.288874 4.468308 8.674317
2393 2 3.412583 4.004781 9.950699
2394 5 3.366871 4.393086 9.017074
2395 2 46.407558 31.223615 14.033867
2396 2 47.344875 30.470938 15.114058
2397 5 47.321956 30.88906 14.19255
2398 2 28.227509 0.992193 6.985829
2399 2 28.582354 1.710873 5.582448
2400 5 28.941007 1.111596 6.315088
2401 2 32.570276 8.46473 12.738986
2402 2 32.938426 8.32802 14.306682
2403 5 32.814989 8.981022 13.543217
2404 2 38.031192 15.018166 3.047408
2405 2 38.645841 13.885945 2.071611
2406 5 38.875185 14.608502 2.742313
2407 2 39.49006 6.594231 16.151965
2408 2 40.407415 6.267799 14.862082
2409 5 39.482736 6.544744 15.166709
2410 2 50.086263 27.08885 10.073976
2411 2 50.680307 27.02326 11.575544
2412 5 50.625828 27.584245 10.734798
2413 2 59.933567 4.456393 13.261133
2414 2 59.642654 4.272852 14.840239
2415 5 59.691067 3.793323 13.950163
2416 2 44.711633 22.078054 2.159228
2417 2 45.725841 23.271154 2.558967
2418 5 45.212697 22.84666 1.796723
2419 2 23.11384 29.559395 5.363579
2420 2 22.558106 31.035993 5.013273
2421 5 23.195387 30.305164 4.722947
2422 2 28.083116 34.801229 9.859779
2423 2 26.909426 35.411937 10.787887
2424 5 27.313195 35.418038 9.859738
2425 2 45.394778 29.055886 13.53796
2426 2 44.519566 28.378145 14.715486
2427 5 44.846726 28.267373 13.764054
2428 2 41.761602 15.415538 9.118185
2429 2 40.495761 14.727492 8.385972
2430 5 41.42164 14.561592 8.759809
2431 2 48.506061 8.802638 12.625056
2432 2 50.025414 8.252238 12.602189
2433 5 49.44014 9.062558 12.442929
2434 2 4.61134 27.329754 8.060592
2435 2 4.75466 27.277153 9.669501
2436 5 5.17217 26.984509 8.795103
2437 2 16.344596 18.641428 10.027465
2438 2 15.064377 19.624458 9.946312
2439 5 16.075528 19.589127 9.975502
2440 2 11.913045 25.364361 2.180178
2441 2 13.283988 24.785988 1.549389
2442 5 12.86297 25.577035 2.020044
2443 2 39.539834 9.5391 16.572202
2444 2 38.559753 8.547859 15.754414
2445 5 38.748161 8.957173 16.660775
2446 2 34.854815 7.268816 14.094891
2447 2 34.681395 6.771986 12.566826
2448 5 35.251638 6.692661 13.399327
2449 2 46.365758 32.270141 10.725693
2450 2 47.961753 32.325517 10.477441
2451 5 47.179392 31.714541 10.675297
2452 2 49.572077 15.218837 4.176934
2453 2 49.545127 15.755423 2.652715
2454 5 49.595351 14.92857 3.234366
2455 2 18.950345 19.222125 1.03338
2456 2 20.563142 19.316916 0.991011
2457 5 19.747634 19.409254 1.583419
2458 2 30.761397 22.070161 11.681376
2459 2 31.751513 21.831924 12.936289
2460 5 31.382771 22.525348 12.29776
2461 2 3.491564 30.128544 12.651479
2462 2 2.206501 30.67888 11.84053
2463 5 3.142511 30.305444 11.745886
2464 2 55.262327 9.796615 15.566887
2465 2 55.946098 10.701183 14.415319
2466 5 55.505828 10.721901 15.326505
2467 2 49.860811 6.805943 9.987924
2468 2 49.865003 6.335801 11.53416
2469 5 50.396047 6.338877 10.67247
2470 2 3.737498 31.740635 5.044259
2471 2 3.714289 30.17789 4.63294
2472 5 3.181389 31.038437 4.630869
2473 2 51.639234 2.710539 13.31786
2474 2 51.618489 3.642319 14.638182
2475 5 51.194126 2.840894 14.188559
2476 2 45.394176 9.14446 0.983859
2477 2 44.632843 10.517523 1.367217
2478 5 44.514123 9.590235 0.979185
2479 2 30.108927 23.106282 9.853308
2480 2 30.631764 24.152416 10.968718
2481 5 29.879424 23.941663 10.325216
2482 2 35.250808 6.872664 10.122723
2483 2 35.949413 6.974293 8.668929
2484 5 36.108104 6.765374 9.646526
2485 2 20.410973 11.479679 16.607971
2486 2 20.056303 11.539173 15.032355
2487 5 20.424124 12.065833 15.814572
2488 2 15.558983 16.023348 12.591454
2489 2 15.772766 17.375527 11.732498
2490 5 15.253561 16.508458 11.788573
2491 2 41.474369 24.943103 12.231779
2492 2 40.463031 24.893512 13.491395
2493 5 40.876104 24.349433 12.744484
2494 2 54.706271 17.039301 10.422088
2495 2 53.488422 16.149707 11.002918
2496 5 54.485791 16.169217 10.831444
2497 2 25.006172 31.00924 11.26562
2498 2 24.186924 31.441315 9.941219
2499 5 25.104694 31.221767 10.307311
2500 2 33.235361 25.179911 8.931263
2501 2 34.061888 26.566059 8.845579
2502 5 33.223948 26.127337 9.206005
2503 2 24.425311 20.146836 6.766833
2504 2 24.610539 19.377944 8.176227
2505 5 24.766487 19.317492 7.177952
2506 2 28.851578 3.553501 15.173966
2507 2 28.514691 3.567702 13.593396
2508 5 28.132495 3.401752 14.515846
2509 2 34.650642 34.641751 11.342464
2510 2 35.160013 34.982633 9.847059
2511 5 35.403249 35.019963 10.828879
2512 2 41.000324 10.811007 12.678481
2513 2 40.790963 12.386043 12.97399
2514 5 41.451215 11.688157 12.655319
2515 2 15.111059 17.580441 14.1469
2516 2 14.836977 18.891983 15.050578
2517 5 14.574155 18.406206 14.20236
2518 2 2.107021 21.550858 12.614312
2519 2 2.697238 22.111817 14.01033
2520 5 2.927135 21.615199 13.158834
2521 2 24.18649 5.429276 1.222253
2522 2 25.472672 6.401789 1.113403
2523 5 24.469448 6.345684 0.991253
2524 2 11.05141 14.076194 9.191901
2525 2 9.817722 14.275464 8.167107
2526 5 10.780879 13.975104 8.248596
2527 2 26.880917 3.174746 6.222412
2528 2 25.707263 3.792196 5.298731
2529 5 25.910571 3.142156 6.047491
2530 2 5.972713 10.347167 14.122188
2531 2 5.504069 10.562734 15.653788
2532 5 5.232545 10.186357 14.754265
2533 2 14.439309 34.284082 12.94546
2534 2 14.396881 34.857637 14.455801
2535 5 13.936233 34.874849 13.554671
2536 2 26.724343 26.384846 9.200824
2537 2 26.640829 25.889037 7.66489
2538 5 27.265404 26.058696 8.443124
2539 2 18.241803 26.994839 18.091081
2540 2 18.944485 26.120673 16.92748
2541 5 18.089622 26.259394 17.4514
2542 2 44.414272 30.54649 7.542017
2543 2 43.320658 31.012518 8.636879
2544 5 44.274884 30.701177 8.506317
2545 2 22.040097 7.442346 14.459768
2546 2 21.914749 6.281469 13.342384
2547 5 21.396701 6.95464 13.892832
2548 2 30.478547 21.592578 14.715105
2549 2 30.52176 22.39049 16.119871
2550 5 30.181877 22.417895 15.166846
2551 2 50.04554 15.910092 6.544543
2552 2 51.181717 16.96398 7.003146
2553 5 50.707526 16.104399 7.249703
2554 2 40.175961 20.456991 1.591921
2555 2 41.616815 19.847332 1.186767
2556 5 40.619451 19.779957 1.027854
2557 2 22.16234 25.666058 17.762453
2558 2 21.013512 25.080179 16.788372
2559 5 21.329522 25.901278 17.288831
2560 2 24.919147 18.706253 10.725688
2561 2 24.142654 17.6558 9.774108
2562 5 24.34318 17.905367 10.734333
2563 2 53.562025 21.414854 10.79855
2564 2 53.585347 20.466462 9.490152
2565 5 53.254681 21.347228 9.863565
2566 2 17.074124 4.371568 9.02245
2567 2 17.058598 5.222636 10.396255
2568 5 16.809842 5.237087 9.415215
2569 2 49.774778 5.688806 6.477909
2570 2 49.832304 4.07883 6.606607
2571 5 49.354249 4.853454 6.163946
2572 2 59.112887 22.159247 1.59904
2573 2 58.751232 23.391201 2.580565
2574 5 58.370283 22.721408 1.924224
2575 2 34.712032 25.89013 5.863463
2576 2 33.431081 25.893175 6.848883
2577 5 34.440068 25.823078 6.809386
2578 2 37.326186 35.363519 9.816097
2579 2 37.240215 35.284258 8.204197
2580 5 37.862882 35.421265 8.990353
2581 2 36.325238 4.46985 10.277458
2582 2 36.417592 5.568983 11.458675
2583 5 35.801946 4.923871 10.979784
2584 2 36.489991 4.963017 7.958425
2585 2 38.017449 4.446851 7.847332
2586 5 37.429311 5.264373 7.94871
2587 2 31.397095 6.33317 17.202058
2588 2 32.878205 6.810903 16.766192
2589 5 32.170114 6.876077 17.48653
2590 2 36.838656 25.015503 17.077529
2591 2 37.412626 25.931494 18.278952
2592 5 36.808094 25.921298 17.467185
2593 2 41.541443 22.286469 13.332797
2594 2 40.198228 22.755306 14.099518
2595 5 40.558682 22.200377 13.333585
2596 2 20.220801 5.300587 1.941419
2597 2 20.882314 6.073101 3.197412
2598 5 20.045957 5.980068 2.634937
2599 2 60.862909 11.982169 14.114222
2600 2 60.547236 12.336908 12.569422
2601 5 60.859265 12.715776 13.454648
2602 2 4.797137 11.860846 7.213087
2603 2 5.065134 10.404202 6.566355
2604 5 4.908937 11.382258 6.357701
2605 2 51.767395 20.290695 11.474886
2606 2 51.133548 21.364369 10.446608
2607 5 51.385206 21.198058 11.412805
2608 2 47.469497 15.094788 5.881999
2609 2 46.464622 14.049039 6.595114
2610 5 47.122504 14.172456 5.835846
2611 2 9.793827 15.956333 17.916017
2612 2 10.539545 14.837611 18.812822
2613 5 10.482901 15.250813 17.890551
2614 2 43.511329 26.424458 14.802228
2615 2 42.923348 25.252265 13.857697
2616 5 42.81831 25.724543 14.746768
2617 2 18.969276 24.396756 14.836078
2618 2 17.489972 23.751219 14.753376
2619 5 18.112239 24.315692 15.317895
2620 2 55.950932 4.388088 16.713964
2621 2 56.610663 4.216889 15.248583
2622 5 56.285767 4.888582 15.932541
2623 2 35.588209 2.415087 4.470329
2624 2 33.97576 2.445263 4.365494
2625 5 34.837407 2.552341 3.845278
2626 2 24.332943 32.629524 8.095484
2627 2 25.790508 32.445671 7.421987
2628 5 25.274336 32.409469 8.291919
2629 2 39.612893 9.936997 2.329948
2630 2 38.058529 10.289365 2.062207
2631 5 38.73284 10.020994 2.767763
2632 2 28.08105 23.002901 2.022816
2633 2 29.240985 22.106092 2.702654
2634 5 28.569552 22.149224 1.94645
2635 2 49.418211 29.455781 10.753722
2636 2 48.340762 30.168041 11.725157
2637 5 48.752619 30.182428 10.80066
2638 2 47.302897 4.177459 6.581549
2639 2 47.193993 4.578474 8.14335
2640 5 47.421689 4.921289 7.218602
2641 2 23.400379 22.555873 8.637016
2642 2 23.859815 22.243448 7.119385
2643 5 23.594782 21.8259 8.002526
2644 2 1.047602 8.938834 7.215264
2645 2 0.999359 10.494065 7.652099
2646 5 1.524034 9.799057 7.136147
2647 2 55.961837 13.199785 10.653326
2648 2 55.533917 14.228165 11.824316
2649 5 55.457887 14.028195 10.834993
2650 2 37.788791 15.095686 12.247704
2651 2 37.511976 15.508287 13.78557
2652 5 37.113005 15.068418 12.965896
2653 2 62.10344 29.828117 15.18602
2654 2 62.159766 30.673314 16.562379
2655 5 61.667356 30.558574 15.685513
2656 2 57.257841 13.288753 12.816993
2657 2 58.51124 12.837021 11.902212
2658 5 57.713637 13.457653 11.958533
2659 2 28.389832 9.390549 10.705376
2660 2 27.461702 10.645376 10.285995
2661 5 27.457101 9.665247 10.538688
2662 2 59.498314 30.782486 17.078127
2663 2 58.678569 32.174972 17.108055
2664 5 58.886096 31.352747 16.55542
2665 2 18.288694 10.244866 14.834685
2666 2 17.531131 8.94138 14.252517
2667 5 17.425149 9.920886 14.484603
2668 2 13.702263 27.952183 7.57272
2669 2 14.201202 28.499207 9.009285
2670 5 13.789798 28.76579 8.12373
2671 2 32.016155 27.965734 9.253591
2672 2 32.720386 27.975855 10.708188
2673 5 32.602269 28.49333 9.846332
2674 2 28.754186 16.490646 15.364395
2675 2 28.894577 17.57313 16.556207
2676 5 28.263848 17.183576 15.867036
2677 2 61.673726 18.2202 12.109764
2678 2 61.202193 19.38859 13.121899
2679 5 61.446456 18.408876 13.051029
2680 2 34.413609 24.947991 13.650425
2681 2 33.619068 24.951508 15.057758
2682 5 33.702435 24.491911 14.15979
2683 2 44.181712 13.432627 7.978319
2684 2 44.848643 14.896582 7.823616
2685 5 44.252983 14.319696 8.404065
2686 2 16.947899 26.994719 8.034557
2687 2 17.908645 28.235019 8.422521
2688 5 16.976626 27.976769 8.1239
2689 2 45.35487 19.197254 15.124037
2690 2 45.795551 17.724974 14.623947
2691 5 45.042129 18.266508 15.028451
2692 2 57.831469 16.269483 13.112589
2693 2 58.241057 16.216066 14.675049
2694 5 58.56242 16.035402 13.732385
2695 2 47.425112 24.155073 10.620449
2696 2 47.666684 25.239087 9.446374
2697 5 47.730076 25.076419 10.443393
2698 2 7.010184 34.662807 12.186705
2699 2 6.470036 33.488807 13.157199
2700 5 6.807419 33.698151 12.226138
2701 2 52.835509 15.681968 6.325922
2702 2 54.44474 15.778584 6.439652
2703 5 53.578007 15.818949 6.960873
2704 2 9.84594 4.553289 8.183502
2705 2 9.77986 4.951019 9.748539
2706 5 10.223771 5.160239 8.863272
2707 2 33.403776 22.627669 16.528959
2708 2 32.853657 22.649049 15.009483
2709 5 32.709222 22.259914 15.932652
2710 2 39.939527 24.116837 7.216742
2711 2 38.992449 24.589003 5.995268
2712 5 39.588672 24.910469 6.747401
2713 2 47.481294 19.421303 14.60819
2714 2 47.872221 17.997851 13.950272
2715 5 48.23272 18.897701 14.241542
2716 2 54.886235 8.934632 8.982701
2717 2 55.595858 9.355193 10.372471
2718 5 55.033239 8.648753 9.915382
2719 2 48.650864 29.326856 0.98998
2720 2 48.58501 28.892247 2.545189
2721 5 48.381164 28.598503 1.598253
2722 2 55.129121 15.498047 3.309487
2723 2 55.198617 16.048058 1.791411
2724 5 54.581432 15.852491 2.569462
2725 2 32.275347 14.777936 10.572021
2726 2 31.525214 15.165204 11.950143
2727 5 32.098606 15.521411 11.19591
2728 2 19.397679 28.622884 14.285956
2729 2 21.008781 28.67577 14.16998
2730 5 20.150906 28.510364 13.658884
2731 2 57.994633 4.687769 4.162962
2732 2 59.059724 3.826417 5.020604
2733 5 58.862051 4.220892 4.109647
2734 2 51.707509 10.970439 6.702376
2735 2 53.166117 10.455363 6.234343
2736 5 52.445527 10.359955 6.93874
2737 2 38.846531 26.024787 16.317338
2738 2 40.204236 25.564753 15.571079
2739 5 39.730563 26.341405 16.014894
2740 2 51.517165 0.993348 10.244069
2741 2 50.959411 2.050292 11.332038
2742 5 51.759081 1.492684 11.059772
2743 2 19.625692 26.892607 0.983783
2744 2 21.077848 27.284942 1.574724
2745 5 20.499639 26.520286 1.249911
2746 2 24.724131 26.4161 17.094934
2747 2 24.295447 24.862299 16.977343
2748 5 24.206847 25.776006 16.550942
2749 2 18.347397 29.029268 10.44061
2750 2 19.695705 29.250497 11.303755
2751 5 19.215816 28.622226 10.671688
2752 2 25.112368 15.788392 9.102875
2753 2 25.331181 15.44092 10.665974
2754 5 25.75218 15.866393 9.849727
2755 2 49.067394 29.80648 7.17393
2756 2 50.215864 29.319721 6.146323
2757 5 49.237805 29.565674 6.232547
2758 2 24.744864 35.327725 7.035377
2759 2 26.236956 34.732869 7.213435
2760 5 25.274061 34.645823 7.513072
2761 2 13.867431 7.335098 4.51414
2762 2 13.658147 7.409275 6.11495
2763 5 14.041807 7.889913 5.311011
2764 2 21.257034 5.418126 9.682425
2765 2 21.316749 6.298254 8.328282
2766 5 21.715164 6.177841 9.250938
2767 2 41.128835 33.294003 8.359058
2768 2 41.157288 33.932942 6.87486
2769 5 41.342795 33.098016 7.416169
2770 2 7.174214 31.181075 6.712449
2771 2 7.112042 30.57348 8.20873
2772 5 7.345043 31.392076 7.660882
2773 2 59.003253 32.40468 1.072344
2774 2 59.573138 32.700912 2.555372
2775 5 59.434214 33.092905 1.632567
2776 2 44.940545 33.186987 12.992828
2777 2 46.456576 33.746486 12.970294
2778 5 45.871167 32.944781 12.772576
2779 2 28.287393 12.690384 1.416874
2780 2 26.76582 13.232284 1.361593
2781 5 27.678277 13.292784 0.927669
2782 2 13.933028 25.877578 6.878245
2783 2 14.250614 24.722566 7.963133
2784 5 14.40299 25.019898 7.007674
2785 2 24.588566 13.137002 11.040828
2786 2 24.584139 11.99879 9.893505
2787 5 24.16254 12.29065 10.766202
2788 2 12.557101 2.470012 13.355427
2789 2 12.199162 3.963218 12.851332
2790 5 11.819022 3.11704 13.256305
2791 2 59.618665 27.626469 4.639132
2792 2 61.11986 28.007322 5.100933
2793 5 60.143881 28.264272 5.178192
2794 2 44.91745 20.824849 4.407859
2795 2 44.780125 21.664374 5.78199
2796 5 44.782388 21.731689 4.772044
2797 2 27.185007 0.986165 9.817772
2798 2 27.723447 1.000788 11.341506
2799 5 27.73611 1.495218 10.458382
2800 2 38.206774 16.664371 8.87143
2801 2 38.519243 15.492494 7.803272
2802 5 38.238077 15.685081 8.756363
2803 2 2.446735 32.841398 11.466804
2804 2 2.864775 33.083603 9.924574
2805 5 2.944171 33.445801 10.8664
2806 2 7.918513 22.501137 6.664464
2807 2 6.306937 22.381291 6.645602
2808 5 7.12703 22.370991 7.238788
2809 2 41.288355 4.925025 16.612425
2810 2 41.459162 4.174655 15.191276
2811 5 41.249968 4.042714 16.172783
2812 2 61.118299 29.432416 3.425259
2813 2 60.171152 30.60302 2.83832
2814 5 60.534999 30.184421 3.68503
2815 2 60.447493 6.352956 15.740498
2816 2 60.277454 5.830036 17.260214
2817 5 60.75764 5.671912 16.383319
2818 2 38.760854 1.001198 16.904245
2819 2 38.200768 1.000337 15.388264
2820 5 38.252059 1.533074 16.247384
2821 2 52.829 17.995648 3.513781
2822 2 53.354505 16.870428 4.548006
2823 5 53.606532 17.434813 3.746458
2824 2 46.373218 33.961149 7.785614
2825 2 45.511666 33.327056 8.99704
2826 5 46.44578 33.453176 8.628187
2827 2 45.314942 29.905799 4.97193
2828 2 43.716776 29.665463 4.971888
2829 5 44.457359 30.281302 5.283025
2830 2 42.232141 4.654585 9.968654
2831 2 42.302668 5.843378 11.061216
2832 5 42.252351 4.840054 10.937376
2833 2 34.294644 15.570481 11.31272
2834 2 34.483031 15.094016 9.779949
2835 5 34.469515 14.784015 10.743403
2836 2 51.194262 33.489533 17.421866
2837 2 50.705022 31.970327 17.167791
2838 5 51.514548 32.566576 17.284761
2839 2 12.598354 16.115077 10.041914
2840 2 12.716934 16.789924 8.578215
2841 5 12.257993 16.849805 9.47839
2842 2 30.3682 2.32128 11.836914
2843 2 31.565672 1.850841 10.858833
2844 5 30.944811 1.556082 11.601919
2845 2 37.42025 21.365359 1.387708
2846 2 38.686287 21.957738 2.198963
2847 5 37.991817 21.221644 2.178839
2848 2 61.742826 6.324142 7.980137
2849 2 62.153325 4.8093 8.365673
2850 5 61.387683 5.469975 8.322922
2851 2 37.722687 35.000144 4.762912
2852 2 39.280757 35.417275 4.661346
2853 5 38.465161 35.141791 4.128956
2854 2 12.345211 2.175674 1.014062
2855 2 13.244 1.106674 1.827273
2856 5 13.203035 1.688669 1.000151
2857 2 3.817991 27.151391 4.896984
2858 2 3.389174 28.101774 6.131805
2859 5 3.473389 28.047311 5.124597
2860 2 14.482056 3.791215 7.503989
2861 2 15.003435 5.314084 7.648665
2862 5 14.812035 4.457344 8.15254
2863 2 52.958419 29.7808 16.044902
2864 2 52.824382 29.348899 14.493325
2865 5 52.314636 29.489781 15.356365
2866 2 14.314419 31.564314 8.491394
2867 2 13.686271 30.558091 9.589047
2868 5 13.603365 30.896537 8.638727
2869 2 56.816937 9.279149 5.209147
2870 2 56.25564 8.261453 6.33215
2871 5 57.011212 8.435063 5.681382
2872 2 6.091756 24.99729 2.742717
2873 2 5.243586 25.916164 3.76652
2874 5 5.974187 25.219111 3.696763
2875 2 55.000357 12.398551 6.140516
2876 2 55.434373 10.872677 5.831917
2877 5 54.860066 11.645255 5.519152
2878 2 59.25258 34.887515 8.645427
2879 2 59.310311 35.074255 7.041154
2880 5 59.566751 34.467675 7.809807
2881 2 39.153173 13.490505 7.142993
2882 2 39.360825 11.950498 6.698972
2883 5 39.32856 12.583212 7.488376
2884 2 21.158721 1.410602 11.115983
2885 2 22.774235 1.429161 11.075178
2886 5 21.965776 0.996433 11.503742
2887 2 39.011718 34.323922 10.774285
2888 2 39.90029 34.764948 9.49842
2889 5 39.581785 35.045593 10.417289
2890 2 43.151092 5.553313 6.563095
2891 2 43.143257 5.52723 8.179001
2892 5 43.043878 4.961848 7.345338
2893 2 51.909154 33.683725 2.127959
2894 2 50.953763 34.961632 1.870902
2895 5 51.914714 34.654885 1.954611
2896 2 11.002963 27.840813 11.844943
2897 2 11.041072 27.422612 10.284317
2898 5 11.563866 27.858299 11.033578
2899 2 61.54751 32.04498 9.755273
2900 2 61.0052 31.68049 11.233428
2901 5 60.853008 32.264304 10.4207
2902 2 55.664823 21.826594 18.11291
2903 2 55.744434 22.538841 16.664373
2904 5 56.182726 21.859966 17.273926
2905 2 19.738999 23.881369 3.700923
2906 2 19.695554 24.813903 2.381685
2907 5 20.077949 24.723394 3.314482
2908 2 18.677888 21.719525 9.445266
2909 2 18.038387 20.449533 8.677116
2910 5 18.904319 20.901428 8.942596
2911 2 32.933953 9.274968 17.053357
2912 2 34.074187 9.320585 15.908944
2913 5 33.754168 8.829392 16.734077
2914 2 32.870731 5.344531 5.595325
2915 2 31.732706 6.258099 4.900926
2916 5 32.72832 6.155304 5.051637
2917 2 35.576382 21.924839 7.709576
2918 2 35.032881 21.982137 9.230503
2919 5 35.826021 22.172748 8.631233
2920 2 6.916485 4.111105 3.302571
2921 2 7.03879 4.66509 4.815858
2922 5 6.545461 4.01964 4.21208
2923 2 7.05983 13.310446 9.248111
2924 2 6.619799 12.980081 7.728529
2925 5 7.17775 12.664482 8.511866
2926 2 18.303899 2.769767 13.366834
2927 2 18.828737 2.878253 11.842147
2928 5 19.113569 2.742374 12.803882
2929 2 50.616736 12.849533 2.365721
2930 2 51.304731 13.365954 0.997558
2931 5 51.482249 12.949987 1.903089
2932 2 28.856871 21.58571 7.568236
2933 2 28.433301 21.875027 6.035663
2934 5 28.698439 22.305549 6.912521
2935 2 30.130654 9.474302 16.979661
2936 2 28.947276 10.171169 17.831653
2937 5 29.661654 10.328721 17.132103
2938 2 7.696737 24.441055 7.742988
2939 2 8.784627 24.528774 6.551058
2940 5 8.660701 24.375195 7.543824
2941 2 57.660344 30.156689 2.325236
2942 2 57.211975 30.977962 1.007521
2943 5 57.980469 30.495109 1.455625
2944 2 23.768496 9.717849 12.057372
2945 2 24.107216 9.818788 10.480358
2946 5 24.395239 9.4101 11.36044
2947 2 22.685112 32.642097 6.63823
2948 2 22.515458 33.232402 5.143354
2949 5 23.018123 33.331672 6.016281
2950 2 47.429563 15.316509 11.810454
2951 2 47.85714 15.639027 10.28564
2952 5 48.163942 15.227091 11.157826
2953 2 11.234358 31.881182 6.271729
2954 2 11.594549 31.230781 7.706698
2955 5 11.937681 31.40108 6.769795
2956 2 32.228376 9.727574 7.181408
2957 2 32.701129 10.968574 8.10245
2958 5 32.83826 9.983716 7.913298
2959 2 33.786818 23.181069 10.60908
2960 2 32.368129 23.378399 9.860563
2961 5 32.810126 23.119186 10.733475
2962 2 53.256098 11.051487 15.541856
2963 2 53.680419 11.268288 13.997562
2964 5 53.404602 10.581005 14.687559
2965 2 59.334669 1.600183 8.740789
2966 2 59.568092 3.187505 8.935255
2967 5 59.286637 2.470442 8.278649
2968 2 12.3929 21.463961 6.381853
2969 2 11.395498 20.499357 5.553226
2970 5 11.455684 21.352354 6.094798
2971 2 50.446826 20.590064 14.684723
2972 2 49.196116 20.564656 15.707941
2973 5 49.897296 19.996562 15.249528
2974 2 26.7528 32.271571 11.710456
2975 2 27.491976 32.065809 10.288072
2976 5 27.122483 31.589443 11.101139
2977 2 8.154106 17.809044 2.109479
2978 2 7.923637 19.274787 1.46887
2979 5 7.779863 18.703412 2.291905
2980 2 14.465988 8.822911 8.853303
2981 2 15.346096 8.928896 10.204626
2982 5 14.417212 9.032485 9.816075
2983 2 39.795786 16.744023 3.161373
2984 2 41.322843 16.867115 2.646746
2985 5 40.596518 16.218948 2.923981
2986 2 23.456488 14.468107 9.702175
2987 2 23.157956 15.382129 11.00115
2988 5 22.780628 15.051277 10.122124
2989 2 50.329903 20.467807 8.153877
2990 2 51.048122 19.422951 9.156042
2991 5 51.195624 20.229444 8.562461
2992 2 39.506249 19.245696 18.655565
2993 2 38.140813 18.504052 18.211217
2994 5 38.722518 18.755712 19.000402
2995 2 41.239215 20.270678 17.200694
2996 2 40.716096 20.913651 15.813312
2997 5 40.700251 21.004701 16.821274
2998 2 19.104834 33.22452 13.140594
2999 2 18.671774 33.385953 11.591951
3000 5 19.370367 33.003395 12.216566
3001 2 43.507255 14.643317 15.739914
3002 2 44.303965 13.718462 16.799061
3003 5 44.153488 13.901717 15.815038
3004 2 13.325786 19.127296 8.621329
3005 2 13.064384 19.483425 7.066744
3006 5 12.819214 18.85363 7.820254
3007 2 61.880667 3.91318 14.129202
3008 2 61.664894 5.514746 14.111228
3009 5 62.161075 4.745317 13.679592
3010 2 14.11494 4.977099 11.589542
3011 2 12.737393 5.802436 11.771416
3012 5 13.603816 5.535923 12.221759
3013 2 58.516229 8.91469 0.995726
3014 2 58.27876 10.239756 1.889988
3015 5 58.651999 9.891619 1.015905
3016 2 14.422091 21.430274 8.868386
3017 2 14.356165 21.82916 7.303637
3018 5 13.935141 21.260441 8.027394
3019 2 3.266563 35.4134 16.165959
3020 2 3.672795 35.094633 17.697382
3021 5 4.021006 35.412213 16.801604
3022 2 24.030477 3.231165 2.036801
3023 2 24.341109 3.536402 3.593154
3024 5 23.884008 3.885622 2.760309
3025 2 13.24077 4.188467 5.731727
3026 2 14.301238 5.333498 5.311959
3027 5 13.345075 5.018057 5.208151
3028 2 41.927219 28.574475 15.60654
3029 2 41.289313 27.320888 14.810617
3030 5 41.618227 27.643528 15.711864
3031 2 29.807131 13.544806 12.436282
3032 2 29.997507 13.146888 13.991054
3033 5 29.316841 13.348257 13.269478
3034 2 41.260531 5.507417 12.970074
3035 2 39.848861 5.980043 12.341022
3036 5 40.782516 6.281902 12.58941
3037 2 23.700804 35.401736 1.451125
3038 2 23.060946 34.035925 2.031673
3039 5 23.822811 34.695216 2.128749
3040 2 60.439867 22.892268 6.678592
3041 2 59.68071 23.051594 8.096404
3042 5 59.559621 23.059284 7.091513
3043 2 16.537296 2.216543 10.673042
3044 2 16.526744 0.997113 9.612488
3045 5 16.424372 1.240049 10.589744
3046 2 57.688976 20.511185 2.515519
3047 2 56.601632 20.782058 3.680082
3048 5 57.349441 21.196696 3.138433
3049 2 25.037697 34.817484 16.7156
3050 2 26.558175 35.348795 16.84883
3051 5 25.668911 35.267879 17.325473
3052 2 49.901171 30.765957 2.088256
3053 2 49.930748 30.244029 3.617508
3054 5 50.410664 30.212944 2.726867
3055 2 27.612983 25.186884 12.596676
3056 2 27.049621 25.165171 11.082064
3057 5 26.931606 25.57677 11.999227
3058 2 61.2676 33.690377 12.389591
3059 2 60.555097 34.867279 13.23761
3060 5 61.264051 34.145361 13.264924
3061 2 57.15804 28.704982 7.434479
3062 2 58.347738 28.2329 6.44774
3063 5 57.861835 28.024804 7.310945
3064 2 45.16712 25.749954 9.145493
3065 2 44.883351 24.492078 10.119721
3066 5 45.518838 25.254954 9.922989
3067 2 16.704882 16.782268 15.789535
3068 2 17.002847 17.307005 17.28879
3069 5 16.43249 17.448106 16.464586
3070 2 20.625202 17.703461 9.005133
3071 2 21.043668 16.36758 9.812725
3072 5 21.389658 17.124402 9.236496
3073 2 0.999989 7.956632 3.825152
3074 2 1.214985 9.019739 5.023266
3075 5 1.23317 8.037306 4.780322
3076 2 3.264061 15.305456 5.052544
3077 2 3.769438 16.263661 3.853239
3078 5 3.3899 16.248444 4.791454
3079 2 25.627061 21.221791 5.272739
3080 2 26.023504 21.838377 6.713069
3081 5 25.616839 22.048873 5.810383
3082 2 49.297983 1.198275 12.495312
3083 2 48.003261 1.092346 11.53387
3084 5 49.014069 1.047937 11.562562
3085 2 40.126139 21.032156 3.913651
3086 2 39.351634 21.514855 5.247458
3087 5 39.73931 20.71465 4.763818
3088 2 2.559593 22.992727 9.285587
3089 2 3.493957 22.520041 8.05456
3090 5 3.386817 23.205212 8.791845
3091 2 3.925138 12.196789 10.016284
3092 2 4.017976 12.934282 11.451338
3093 5 3.644244 12.132276 10.959771
3094 2 10.141356 16.264533 2.610483
3095 2 11.615912 15.982967 2.011899
3096 5 10.623532 15.891367 1.834929
3097 2 43.336382 10.011614 11.146285
3098 2 44.216733 9.579611 12.430906
3099 5 44.123062 10.25992 11.687312
3100 2 7.983023 10.782366 7.708281
3101 2 7.231158 10.661524 6.282802
3102 5 7.102168 10.848956 7.269087
3103 2 49.954437 31.472409 9.484291
3104 2 50.492446 32.637819 10.46626
3105 5 50.643036 31.685612 10.157794
3106 2 20.672739 31.863469 15.245936
3107 2 20.139084 30.694069 14.266338
3108 5 20.088692 31.069464 15.204989
3109 2 7.205109 34.748799 5.306127
3110 2 7.293222 35.415969 6.775486
3111 5 6.786451 35.416712 5.899295
3112 2 4.534237 22.922981 5.461122
3113 2 5.263318 24.224228 6.08329
3114 5 4.376103 23.748683 5.977302
3115 2 41.32063 17.735754 15.48412
3116 2 41.422224 16.177685 15.066992
3117 5 40.806137 16.979358 15.114806
3118 2 49.264613 12.992353 9.579238
3119 2 49.354897 13.342809 11.154334
3120 5 49.772678 13.510263 10.247722
3121 2 13.857832 14.796863 13.25743
3122 2 13.062374 16.006477 12.539115
3123 5 12.968815 15.080742 12.937598
3124 2 37.781688 5.133755 17.018232
3125 2 38.921583 4.479425 16.077812
3126 5 38.099503 4.282317 16.634463
3127 2 53.782566 34.959932 18.163503
3128 2 53.895709 34.898389 16.552508
3129 5 53.268258 34.788988 17.339187
3130 2 46.689755 8.73218 8.45711
3131 2 46.73379 9.581006 7.082537
3132 5 46.252074 8.842711 7.579927
3133 2 35.072405 27.719537 1.714709
3134 2 35.094832 27.360212 3.290234
3135 5 35.565852 27.217374 2.405777
3136 2 47.895952 11.462372 6.909334
3137 2 47.748041 11.849863 8.471342
3138 5 47.915836 12.217834 7.543458
3139 2 56.879798 24.765124 18.685786
3140 2 57.555315 23.639064 17.743682
3141 5 57.738055 24.338421 18.452226
3142 2 48.130757 22.783233 2.277048
3143 2 47.274396 22.292808 0.997194
3144 5 47.637875 23.102245 1.484249
3145 2 11.102555 17.918495 1.051509
3146 2 12.038841 18.115082 2.354052
3147 5 11.80938 18.486092 1.440692
3148 2 8.671333 20.396386 7.040225
3149 2 8.952835 20.920739 5.537658
3150 5 9.384066 20.686579 6.422948
3151 2 9.104245 12.249024 5.455136
3152 2 8.777773 12.69746 6.973101
3153 5 9.347857 12.090326 6.397844
3154 2 28.931438 26.333337 5.147674
3155 2 28.442991 26.647946 6.655765
3156 5 28.197361 26.184981 5.789822
3157 2 1.002816 22.301628 3.322403
3158 2 1.969496 22.192811 2.031828
3159 5 1.094167 21.882228 2.434152
3160 2 34.626678 19.308823 1.292669
3161 2 35.223411 19.249997 2.79345
3162 5 35.288767 19.71842 1.898556
3163 2 22.073617 27.428746 6.043366
3164 2 21.636711 26.899639 4.580132
3165 5 21.340424 26.998363 5.542937
3166 2 34.188956 35.116655 4.078248
3167 2 33.867578 34.665679 2.559949
3168 5 33.455788 34.953383 3.438688
3169 2 14.386425 6.030317 9.635278
3170 2 15.494947 6.762277 10.555773
3171 5 14.581907 6.861036 10.130175
3172 2 27.720047 3.404735 11.549582
3173 2 26.577239 3.868616 12.593947
3174 5 26.751326 3.565667 11.643977
3175 2 34.947182 9.831096 1.507871
3176 2 36.110325 8.776643 1.891438
3177 5 35.307949 9.282771 2.244362
3178 2 48.273686 25.24436 0.999177
3179 2 48.972386 24.812362 2.390972
3180 5 48.987073 25.486514 1.6361
3181 2 25.269061 5.554135 3.133653
3182 2 25.075311 5.817037 4.716448
3183 5 25.587178 6.100922 3.890658
3184 2 43.708913 34.102839 11.416081
3185 2 42.526835 33.386651 10.578428
3186 5 42.738468 33.925607 11.408649
3187 2 50.51931 2.55669 9.059704
3188 2 52.022702 2.987285 9.467499
3189 5 51.049387 3.263326 9.498925
3190 2 12.349409 29.971747 0.999773
3191 2 13.606675 30.987215 1.000269
3192 5 13.275492 30.08579 1.320078
3193 2 5.821022 28.915358 13.752101
3194 2 7.266201 29.449751 14.239724
3195 5 6.47858 28.86351 14.485695
3196 2 33.768183 0.995353 7.221809
3197 2 34.660454 0.997896 5.874315
3198 5 34.613061 1.322864 6.831747
3199 2 59.520082 10.204312 8.455198
3200 2 58.816584 10.029481 7.010754
3201 5 58.970185 10.66861 7.78046
3202 2 17.792642 9.877352 1.697377
3203 2 17.878609 9.643372 3.294173
3204 5 17.261423 9.88331 2.528642
3205 2 10.899004 34.304623 11.692489
3206 2 10.13456 34.023603 10.296585
3207 5 10.007115 34.254101 11.273905
3208 2 12.476909 23.957769 6.912651
3209 2 12.356826 24.059936 5.304224
3210 5 12.881225 23.650306 6.066941
3211 2 51.014217 25.138446 10.490884
3212 2 51.788498 23.806225 10.003468
3213 5 51.883844 24.799901 10.170935
3214 2 45.30702 34.740468 14.560648
3215 2 44.050196 34.74436 15.576656
3216 5 45.052042 34.869571 15.504867
3217 2 28.328108 15.803155 3.675561
3218 2 27.752951 15.952933 5.178444
3219 5 28.397885 15.440401 4.590313
3220 2 31.502055 1.029514 16.543568
3221 2 30.203303 1.468 17.399646
3222 5 30.515917 1.004716 16.555745
3223 2 57.113433 20.122044 12.204221
3224 2 57.84347 21.285955 13.055251
3225 5 57.678324 20.289114 12.99556
3226 2 60.383931 27.604092 13.324082
3227 2 59.638651 27.49703 14.754113
3228 5 60.41705 27.157713 14.203218
3229 2 8.032754 8.005043 12.644462
3230 2 7.817463 8.051291 11.043398
3231 5 7.647466 8.54214 11.91213
3232 2 24.09095 26.958438 1.454544
3233 2 24.14939 28.520001 1.042229
3234 5 24.62583 27.629995 0.968595
3235 2 61.175065 19.512953 7.528968
3236 2 61.686424 19.697337 6.006992
3237 5 61.867424 19.229266 6.886012
3238 2 28.030648 5.479277 12.211985
3239 2 28.097632 5.677276 10.609423
3240 5 27.571186 5.897167 11.445504
3241 2 36.903378 2.556609 7.681159
3242 2 35.755326 3.030899 8.715045
3243 5 36.463146 2.330242 8.534495
3244 2 59.039964 7.360829 13.60847
3245 2 57.853547 8.445161 13.777389
3246 5 58.20712 7.553599 14.100855
3247 2 33.279216 4.727687 10.138861
3248 2 34.091395 3.544304 10.881738
3249 5 34.010727 4.075801 10.024107
3250 2 43.266195 24.275762 6.777025
3251 2 43.416316 23.433186 5.406103
3252 5 43.699432 23.485117 6.376503
3253 2 23.418579 28.174383 9.342388
3254 2 23.938418 29.300174 10.378853
3255 5 24.031655 28.331901 10.099063
3256 2 50.105645 18.064745 13.442224
3257 2 50.347437 17.869157 11.856293
3258 5 50.24805 17.386305 12.74032
3259 2 36.888385 13.165892 11.693255
3260 2 36.134313 13.419555 10.286512
3261 5 36.95874 13.02304 10.719667
3262 2 61.18255 19.08783 10.070241
3263 2 62.159491 20.175539 9.381496
3264 5 62.039722 19.193044 9.593359
3265 2 6.72717 15.645686 4.214616
3266 2 5.355268 14.837562 4.491592
3267 5 6.173579 15.245066 4.926143
3268 2 8.310454 27.524284 16.946347
3269 2 9.374516 28.695192 16.616734
3270 5 9.149417 27.719984 16.465645
3271 2 10.247801 30.769539 10.509961
3272 2 8.63359 30.723338 10.446047
3273 5 9.478082 30.173852 10.348961
3274 2 23.207664 26.011298 10.665597
3275 2 21.977691 25.502067 9.749219
3276 5 22.288878 26.229664 10.380324
3277 2 48.31331 5.123003 15.127478
3278 2 48.193745 5.636325 16.655254
3279 5 48.825436 5.260497 15.959375
3280 2 38.555088 29.08547 4.456693
3281 2 37.802043 30.268044 3.652742
3282 5 37.685689 29.35666 4.07744
3283 2 14.54334 28.876653 4.096725
3284 2 15.939178 28.803732 3.285421
3285 5 14.934686 28.706737 3.207226
3286 2 34.204669 20.648957 15.996008
3287 2 33.369291 20.545925 14.616361
3288 5 34.207784 20.915631 15.046215
3289 2 60.459462 13.15106 17.922644
3290 2 59.648496 11.773575 17.684383
3291 5 60.469842 12.30252 17.41955
3292 2 56.582184 33.41198 12.973351
3293 2 55.698349 33.9512 11.732394
3294 5 56.487337 34.155965 12.332475
3295 2 37.962072 20.239529 6.777183
3296 2 37.655342 20.957867 8.192035
3297 5 37.235244 20.514273 7.385022
3298 2 14.602873 14.806357 5.702661
3299 2 14.03733 16.063144 6.546785
3300 5 14.769088 15.754332 5.919335
3301 2 26.793952 19.792044 6.469399
3302 2 26.433735 18.360331 5.811876
3303 5 26.682659 19.320455 5.610069
3304 2 23.672691 4.823981 9.604417
3305 2 22.570408 3.753559 9.103351
3306 5 23.198965 3.996789 9.858522
3307 2 32.889248 34.992628 9.524328
3308 2 31.681107 34.036623 9.036122
3309 5 31.9525 34.743508 9.707827
3310 2 50.419996 8.678336 16.578123
3311 2 49.859536 7.189879 16.864964
3312 5 50.620634 7.832527 17.04458
3313 2 62.157743 11.823114 8.622251
3314 2 62.165874 13.422405 8.854845
3315 5 62.174619 12.691585 8.154592
3316 2 34.726768 19.326244 12.595204
3317 2 35.064439 19.094177 14.15854
3318 5 35.099432 19.761483 13.398273
3319 2 44.290533 8.107957 8.254645
3320 2 44.613677 7.636263 6.743031
3321 5 44.264639 7.333802 7.643707
3322 2 40.619724 32.072881 12.871012
3323 2 40.621907 33.131101 11.649513
3324 5 41.20742 32.620569 12.298404
3325 2 33.382817 14.159438 6.381642
3326 2 33.990782 14.97154 7.639722
3327 5 34.000821 14.8868 6.631136
3328 2 62.144557 5.199678 18.240935
3329 2 62.159404 6.777808 17.892825
3330 5 61.985666 6.096215 18.62068
3331 2 51.527196 34.934628 4.681684
3332 2 53.056957 35.328985 5.022581
3333 5 52.317847 35.41285 4.336133
3334 2 27.128742 21.044936 8.958288
3335 2 26.85581 20.369183 10.400773
3336 5 26.44714 20.579938 9.499053
3337 2 26.869743 18.627271 12.083456
3338 2 27.999375 17.953496 11.144386
3339 5 27.054908 18.316901 11.165515
3340 2 62.15946 33.529119 7.406047
3341 2 62.01248 34.920115 8.215629
3342 5 61.681703 33.965712 8.150604
3343 2 37.482456 18.980463 9.140707
3344 2 37.237642 18.272786 7.708521
3345 5 36.7841 18.62129 8.54361
3346 2 51.746801 24.788673 6.864628
3347 2 51.046685 25.34542 8.210646
3348 5 50.94603 24.703556 7.434498
3349 2 58.53604 4.455915 17.380672
3350 2 58.203135 5.788177 16.528529
3351 5 58.1048 5.34173 17.431603
3352 2 41.342782 12.605753 9.796235
3353 2 41.290734 11.164554 10.525708
3354 5 40.812039 11.778251 9.878596
3355 2 0.999191 5.692779 3.11441
3356 2 2.305432 5.021361 3.788821
3357 5 1.581903 5.718744 3.910026
3358 2 49.735223 22.308928 3.901295
3359 2 48.765842 23.167157 4.86858
3360 5 48.837353 22.326315 4.309654
3361 2 50.920259 28.560668 8.667489
3362 2 51.533049 30.019215 8.997676
3363 5 51.649385 29.024365 9.143505
3364 2 56.210262 8.432039 12.315142
3365 2 56.319025 7.339598 11.129124
3366 5 56.824994 8.047519 11.646203
3367 2 54.525205 34.032166 6.024708
3368 2 55.608109 33.593387 4.908156
3369 5 55.380709 33.558644 5.893859
3370 2 27.607783 17.446695 2.22065
3371 2 28.669222 17.540197 1.005536
3372 5 28.124637 18.07893 1.667141
3373 2 4.823171 15.207829 10.680968
3374 2 5.370886 14.720273 9.240762
3375 5 4.909192 14.422055 10.090722
3376 2 26.073067 13.712554 9.522485
3377 2 27.644324 13.435983 9.780471
3378 5 26.706002 13.132448 10.008388
3379 2 18.068801 17.223215 7.20837
3380 2 18.99071 16.121918 6.467341
3381 5 18.983892 16.857503 7.162607
3382 2 29.992658 11.365659 0.992088
3383 2 31.285535 12.244934 1.401038
3384 5 30.948271 11.306083 1.229752
3385 2 27.400322 16.57092 18.53853
3386 2 26.406582 16.058958 17.371366
3387 5 27.022528 15.762502 18.117859
3388 2 44.59959 3.448226 7.710246
3389 2 44.931486 4.276523 6.36278
3390 5 45.198643 4.132759 7.328433
3391 2 10.460472 8.280084 1.362047
3392 2 12.06046 8.054582 1.329135
3393 5 11.165057 7.639248 1.104907
3394 2 46.219394 31.510302 6.59952
3395 2 45.593212 32.434419 5.430846
3396 5 45.732468 32.351364 6.429964
3397 2 7.163255 35.41756 8.971443
3398 2 5.749755 35.024155 8.29384
3399 5 6.451198 34.734811 8.963754
3400 2 42.861257 1.568711 7.952549
3401 2 44.331101 0.999914 8.310211
3402 5 43.595637 1.628077 8.608591
3403 2 34.166809 30.938922 7.204075
3404 2 34.858136 31.493705 5.852713
3405 5 34.954471 30.838938 6.618564
3406 2 17.577376 8.168135 9.795507
3407 2 18.690497 8.969677 8.94088
3408 5 18.041376 8.193194 8.925273
3409 2 23.66142 6.645809 7.761313
3410 2 23.777219 8.10258 7.071166
3411 5 23.850277 7.596555 7.944739
3412 2 3.50727 28.027493 13.770787
3413 2 3.210966 29.329053 14.681853
3414 5 2.955564 28.363706 14.516315
3415 2 56.886774 2.503867 1.622032
3416 2 56.945412 3.044509 3.143927
3417 5 57.047013 2.22733 2.55535
3418 2 56.008476 5.104069 2.919397
3419 2 55.973971 4.586624 1.388726
3420 5 55.461914 4.612531 2.261453
3421 2 24.119187 35.409274 11.835097
3422 2 25.348633 34.431046 12.213813
3423 5 24.523454 34.894257 12.573037
3424 2 7.870359 28.37244 8.278558
3425 2 9.02887 29.49898 8.304152
3426 5 8.445924 28.903396 8.878592
3427 2 17.539417 17.003035 13.765051
3428 2 18.89185 17.404646 12.97668
3429 5 18.238705 17.695188 13.69328
3430 2 38.450177 28.278948 12.526486
3431 2 37.383337 29.108147 13.413152
3432 5 37.871264 29.077753 12.52685
3433 2 49.694932 17.773245 3.516057
3434 2 49.890103 19.363572 3.727396
3435 5 50.324317 18.457093 3.8469
3436 2 58.174363 15.541333 8.302916
3437 2 58.269076 14.414486 7.148298
3438 5 58.102584 14.571997 8.134197
3439 2 21.48038 4.098109 7.223224
3440 2 21.777792 4.406791 5.664969
3441 5 21.603476 4.826515 6.569388
3442 2 23.545231 7.0155 17.301792
3443 2 23.842975 6.582238 15.773548
3444 5 23.610761 7.35914 16.379377
3445 2 40.563215 16.211069 6.763573
3446 2 41.672054 17.310793 7.179479
3447 5 40.939843 16.705876 7.529437
3448 2 39.291414 11.383997 11.417811
3449 2 38.623094 12.200178 12.642185
3450 5 38.536893 11.38141 12.05336
3451 2 7.75882 6.503729 8.592374
3452 2 7.200488 5.233722 7.763373
3453 5 8.026961 5.774767 7.984141
3454 2 30.186776 26.171174 10.217351
3455 2 31.467883 26.235113 11.200494
3456 5 30.809481 26.78958 10.667953
3457 2 41.580783 34.208818 14.132444
3458 2 41.393741 35.057752 12.770012
3459 5 41.531932 35.125227 13.770451
3460 2 9.391908 33.301727 8.093725
3461 2 10.925899 33.562509 7.656964
3462 5 10.325863 33.057184 8.296598
3463 2 32.668438 27.707091 2.363562
3464 2 32.193893 26.606316 1.279588
3465 5 32.994224 26.998632 1.75926
3466 2 47.363582 31.046167 1.713416
3467 2 47.828823 32.419145 0.999008
3468 5 48.044918 31.437327 1.116754
3469 2 54.505302 26.115443 11.31512
3470 2 54.587369 25.804814 12.898998
3471 5 54.784106 25.438352 11.976215
3472 2 11.59264 5.076709 14.767503
3473 2 11.198404 5.347038 16.311329
3474 5 10.965206 5.565731 15.350954
3475 2 48.244459 6.840416 7.916466
3476 2 48.361688 8.109421 6.922594
3477 5 47.788471 7.316777 7.182717
3478 2 54.239322 23.310733 9.924846
3479 2 53.973863 24.845879 9.495016
3480 5 54.093601 24.219191 10.280797
3481 2 38.055506 22.802146 13.582239
3482 2 37.393257 22.632162 15.046625
3483 5 38.077914 22.255595 14.403221
3484 2 51.771312 29.331475 4.584372
3485 2 52.020057 28.750495 3.096929
3486 5 52.235705 29.508449 3.732169
3487 2 50.232344 30.520775 12.792351
3488 2 50.556457 30.368084 14.368274
3489 5 50.69608 29.955456 13.454616
3490 2 43.557861 18.440655 7.107545
3491 2 42.380993 19.191479 6.29321
3492 5 43.18502 19.328372 6.89265
3493 2 53.059412 6.602619 1.72902
3494 2 51.555036 6.316936 1.212168
3495 5 52.302597 5.97404 1.80217
3496 2 55.983571 24.657074 8.620056
3497 2 55.95228 24.159823 7.082637
3498 5 55.41212 24.235426 7.935303
3499 2 54.480677 7.461769 3.191519
3500 2 54.093672 9.012388 3.431736
3501 5 54.816863 8.385029 3.103191
3502 2 15.301538 13.82114 10.60473
3503 2 14.091328 14.816331 11.000815
3504 5 14.839987 14.242569 11.368012
3505 2 27.848355 1.000472 16.511195
3506 2 27.828826 1.943578 17.82347
3507 5 27.37065 1.74825 16.942307
3508 2 17.876342 14.325881 7.221168
3509 2 16.567215 14.210103 8.161741
3510 5 17.10644 13.749087 7.43978
3511 2 32.275777 22.156257 1.466026
3512 2 32.729993 23.636076 1.001569
3513 5 32.537762 23.046273 1.801387
3514 2 37.338467 32.603939 6.723797
3515 2 37.1377 31.403616 5.6604
3516 5 36.96786 31.696246 6.614365
3517 2 41.897969 13.537375 14.487062
3518 2 42.977699 13.613259 13.286929
3519 5 42.392974 14.161462 13.905069
3520 2 42.432892 7.797984 6.516605
3521 2 40.902819 7.479746 6.928302
3522 5 41.53568 8.199163 6.60203
3523 2 43.155895 12.301791 11.408652
3524 2 43.806996 12.988302 10.098436
3525 5 43.677474 12.114437 10.592511
3526 2 28.69887 18.078395 13.612561
3527 2 27.198942 18.161395 14.208566
3528 5 28.1031 18.61586 14.186512
3529 2 23.5373 1.001475 9.056295
3530 2 21.921701 1.028696 9.087813
3531 5 22.75097 1.570318 8.879283
3532 2 5.309352 23.576447 11.25477
3533 2 5.701594 23.925558 12.783222
3534 5 5.359768 24.310628 11.911784
3535 2 56.155508 34.749795 14.693422
3536 2 55.076856 33.548679 14.769087
3537 5 55.23642 34.493462 14.442819
3538 2 11.31011 10.061693 10.78966
3539 2 10.697663 10.740465 12.122355
3540 5 11.158842 9.918221 11.753904
3541 2 3.981017 25.235504 9.398233
3542 2 3.590224 25.670287 10.904932
3543 5 3.279918 25.667441 9.941485
3544 2 3.076415 27.815716 11.088642
3545 2 4.476858 27.518622 11.838569
3546 5 3.862098 28.247932 11.499888
3547 2 41.169143 17.748021 13.085048
3548 2 42.597122 17.61444 12.340113
3549 5 41.72727 18.131289 12.367531
3550 2 9.591222 30.312854 3.46061
3551 2 9.914851 29.079683 2.467409
3552 5 9.619579 29.328417 3.403076
3553 2 53.687417 26.622028 7.611038
3554 2 53.203229 26.874386 9.132148
3555 5 52.959519 26.439271 8.251348
3556 2 23.844426 29.260614 13.368591
3557 2 23.198318 30.219133 12.23913
3558 5 23.101344 29.884269 13.189388
3559 2 61.544052 26.863313 7.906151
3560 2 61.922351 26.393935 6.406661
3561 5 61.532073 26.092484 7.290594
3562 2 35.67807 25.154945 11.861703
3563 2 34.621416 25.216381 10.640391
3564 5 35.259887 25.761614 11.205725
3565 2 56.613622 30.384318 10.160142
3566 2 56.753523 28.878601 9.58993
3567 5 57.211863 29.6004 10.131648
3568 2 7.510533 25.679199 10.393924
3569 2 7.262662 26.257717 8.905377
3570 5 7.053103 26.390985 9.886627
3571 2 47.432305 25.969073 4.536219
3572 2 47.297103 24.541495 3.790808
3573 5 47.54474 24.996851 4.660207
3574 2 32.653958 13.153744 9.011601
3575 2 33.901393 12.81136 8.042801
3576 5 33.63439 13.224003 8.927653
3577 2 15.236209 27.281456 16.149231
3578 2 15.968134 26.925211 17.545394
3579 5 15.083499 26.91801 17.053564
3580 2 9.696891 3.870596 16.948346
3581 2 9.014059 4.32359 15.555351
3582 5 9.057019 3.59031 16.251758
3583 2 5.964406 14.571705 0.997319
3584 2 6.951957 13.292395 0.999117
3585 5 6.244428 13.787836 1.526817
3586 2 53.357858 31.742178 14.956122
3587 2 53.092142 32.956802 13.923659
3588 5 52.78598 32.528267 14.788037
3589 2 40.820533 5.727886 8.256351
3590 2 39.743237 6.016503 9.42598
3591 5 40.334024 5.310035 9.005979
3592 2 36.468459 24.171443 10.059354
3593 2 37.201971 25.606175 10.183452
3594 5 37.343605 24.604103 10.201328
3595 2 61.931731 4.580309 11.213034
3596 2 61.217137 3.302289 11.897078
3597 5 61.320226 3.826381 11.037294
3598 2 45.902443 4.732155 17.33016
3599 2 46.774677 5.647945 18.336357
3600 5 45.838065 5.345399 18.100237
3601 2 57.954427 21.35619 15.251163
3602 2 56.717211 20.354099 14.973665
3603 5 56.972698 21.275606 15.305444
3604 2 57.486238 35.413221 2.250292
3605 2 57.053966 34.484796 1.000067
3606 5 57.820174 34.994149 1.421982
3607 2 3.974936 12.342339 13.569827
3608 2 3.056927 11.185997 12.912539
3609 5 3.814553 11.369007 13.558323
3610 2 44.914087 24.715509 14.937919
3611 2 43.738883 24.035433 15.81444
3612 5 44.590945 23.855936 15.298399
3613 2 21.876151 15.268099 8.097786
3614 2 20.788615 14.946546 6.946368
3615 5 21.662602 14.648181 7.360678
3616 2 44.948546 2.850704 0.971019
3617 2 44.961666 2.239681 2.467139
3618 5 45.538177 2.621695 1.728067
3619 2 29.434099 12.194654 15.98867
3620 2 30.223471 11.199337 14.989604
3621 5 29.308065 11.510197 15.289481
3622 2 45.850986 14.117148 14.371649
3623 2 45.369573 15.534537 14.980868
3624 5 46.113744 15.061373 14.484025
3625 2 22.714898 35.422258 10.141605
3626 2 21.542014 34.496714 9.525482
3627 5 21.854646 34.988209 10.353263
3628 2 28.444922 28.418545 15.446208
3629 2 29.090578 27.678984 14.162434
3630 5 28.388436 27.607138 14.887942
3631 2 59.226039 12.796166 8.785532
3632 2 59.664123 12.715352 7.232004
3633 5 59.978657 12.581921 8.184785
3634 2 48.256733 35.370965 12.347766
3635 2 49.871831 35.413686 12.308667
3636 5 49.063207 35.37049 12.915947
3637 2 46.947577 21.530497 5.106993
3638 2 46.768391 22.144042 6.591362
3639 5 46.855584 22.374392 5.609596
3640 2 40.785614 1.621399 3.157495
3641 2 40.823346 0.973242 1.677507
3642 5 40.325974 0.985997 2.558975
3643 2 44.196433 26.507724 2.250453
3644 2 43.241498 25.918498 1.087351
3645 5 43.893297 26.656025 1.323444
3646 2 30.636353 7.365587 7.017359
3647 2 32.185403 7.60019 6.620747
3648 5 31.228882 7.816851 6.370442
3649 2 21.922574 0.997783 6.888095
3650 2 22.127091 1.887583 5.554557
3651 5 21.441282 1.511936 6.197272
3652 2 3.675332 10.158949 8.253929
3653 2 2.735761 10.228538 9.567041
3654 5 2.993691 9.664065 8.767434
3655 2 44.881453 18.773656 5.381541
3656 2 43.584471 19.047851 4.457122
3657 5 44.520146 18.662021 4.470374
3658 2 50.512347 28.178239 1.221717
3659 2 50.85876 27.017802 2.291894
3660 5 50.18154 27.333378 1.609024
3661 2 14.077663 7.461087 2.13871
3662 2 15.243559 7.295485 1.031842
3663 5 14.743459 6.828806 1.777924
3664 2 53.016199 15.502635 13.048536
3665 2 54.36291 15.783193 13.8968
3666 5 53.999811 15.432702 13.019394
3667 2 54.958464 20.526612 12.386515
3668 2 55.3505 20.060558 10.889518
3669 5 54.794435 19.833265 11.70417
3670 2 26.477929 3.667609 17.544049
3671 2 26.628247 4.053322 15.981831
3672 5 27.129453 3.935014 16.853222
3673 2 16.330772 3.847152 6.312938
3674 2 17.771634 3.194874 5.980755
3675 5 17.017121 3.758509 5.609875
3676 2 57.614479 3.888705 9.663051
3677 2 58.590568 4.773989 10.598689
3678 5 57.734093 4.234923 10.579051
3679 2 2.02377 13.64626 8.967461
3680 2 0.998927 12.670228 9.747815
3681 5 1.924824 13.07867 9.768261
3682 2 44.956806 25.378538 3.979252
3683 2 44.103581 25.692943 5.31531
3684 5 44.043689 25.538241 4.316807
3685 2 59.690672 20.357968 5.263757
3686 2 59.292786 20.412136 6.829212
3687 5 59.59837 20.963366 6.037194
3688 2 30.167716 26.281172 15.475385
3689 2 28.848871 25.441477 15.884596
3690 5 29.473049 26.185693 16.169325
3691 2 16.22469 24.826544 13.310857
3692 2 17.744305 25.376366 13.291867
3693 5 16.973632 25.064567 12.714483
3694 2 45.108409 23.857231 8.025557
3695 2 45.7883 24.142567 6.587424
3696 5 45.975037 23.951998 7.563815
3697 2 23.476396 14.062032 12.732519
3698 2 22.782535 12.94529 13.67238
3699 5 22.977273 13.933658 13.573724
3700 2 8.633739 8.73332 7.244818
3701 2 9.111496 9.568113 5.946063
3702 5 8.716182 8.691732 6.262624
3703 2 57.051983 14.849712 15.956798
3704 2 58.000951 13.793695 16.728927
3705 5 57.986162 14.665521 16.214895
3706 2 29.063876 21.724236 13.03611
3707 2 27.896554 21.773333 11.919488
3708 5 28.495256 22.335799 12.510856
3709 2 29.257881 29.84693 12.661472
3710 2 30.246504 29.808876 11.383555
3711 5 29.610982 29.261567 11.950205
3712 2 2.909376 25.399051 5.867916
3713 2 3.793109 25.468371 7.219251
3714 5 3.123051 25.965909 6.646534
3715 2 21.351149 10.117472 9.845943
3716 2 21.476204 10.50986 8.283161
3717 5 21.861514 10.66781 9.20572
3718 2 29.079552 2.870661 7.751082
3719 2 28.640972 4.237649 7.008865
3720 5 28.660678 3.7519 7.896663
3721 2 41.08942 13.270863 4.033572
3722 2 39.896193 12.341331 4.602846
3723 5 40.630165 12.989167 4.859987
3724 2 26.027755 25.909 5.552473
3725 2 26.274912 25.437046 4.026672
3726 5 25.727511 25.271708 4.861862
3727 2 53.752754 7.803687 15.146544
3728 2 55.147751 7.632463 15.944393
3729 5 54.169151 7.873456 16.038159
3730 2 43.688749 32.649075 4.351406
3731 2 42.605295 32.873772 3.173469
3732 5 43.395931 33.283313 3.65482
3733 2 29.261697 35.412973 7.873244
3734 2 29.952527 33.965125 7.677322
3735 5 29.685103 34.66516 8.357736
3736 2 34.641233 10.202771 13.420739
3737 2 34.684198 8.965102 12.382363
3738 5 35.002598 9.294938 13.28478
3739 2 19.900768 8.277011 18.045596
3740 2 19.143943 9.697817 18.188501
3741 5 19.757041 9.146209 17.601673
3742 2 35.577976 9.0194 10.372559
3743 2 36.948383 9.872368 10.29302
3744 5 36.556893 8.957466 10.477998
3745 2 25.705989 19.791263 14.268994
3746 2 26.633366 20.837521 13.458308
3747 5 26.376935 20.50598 14.379639
3748 2 45.026403 16.827856 6.818668
3749 2 45.932627 16.636409 5.494281
3750 5 45.877408 17.093029 6.395933
3751 2 8.689532 6.496572 15.667568
3752 2 8.435784 6.383149 14.075512
3753 5 8.336199 6.982482 14.885085
3754 2 29.594017 11.072675 9.953511
3755 2 30.751685 11.555945 8.934614
3756 5 30.570953 11.161892 9.849264
3757 2 21.411364 31.458323 11.906186
3758 2 21.899264 31.711064 13.426045
3759 5 21.294897 32.048953 12.687737
3760 2 22.544862 35.390593 3.778728
3761 2 22.671384 35.41307 5.389748
3762 5 23.192727 35.418872 4.522168
3763 2 16.159672 14.856174 0.997838
3764 2 15.726374 13.706501 2.04779
3765 5 16.368484 13.941007 1.301313
3766 2 17.069002 22.474517 17.611371
3767 2 18.09571 22.382183 16.366686
3768 5 17.919317 22.072319 17.313996
3769 2 29.427934 24.939964 8.417365
3770 2 29.408146 24.666246 6.8247
3771 5 28.835521 24.730358 7.656877
3772 2 1.693068 17.475142 9.276805
3773 2 2.668554 16.241589 8.90442
3774 5 2.589924 17.097528 9.438941
3775 2 54.133469 3.161798 13.566456
3776 2 54.450013 3.916894 14.959842
3777 5 54.104412 4.039266 14.016384
3778 2 5.678101 20.094846 10.251363
3779 2 5.938449 21.613626 9.764102
3780 5 6.284395 20.663415 9.719979
3781 2 24.269514 7.817751 4.281204
3782 2 24.35729 9.330782 4.842389
3783 5 24.582239 8.364056 5.040799
3784 2 44.025115 20.188227 16.569098
3785 2 42.923737 19.005493 16.567433
3786 5 43.888239 19.232908 16.773698
3787 2 18.293971 12.756994 15.531258
3788 2 17.887835 12.657995 13.970121
3789 5 17.526074 12.700809 14.914485
3790 2 30.763034 15.760755 14.311299
3791 2 29.501123 16.046998 13.343032
3792 5 30.162245 15.344222 13.648891
3793 2 50.419522 35.124886 9.436765
3794 2 49.024971 34.594988 10.05832
3795 5 49.730021 35.31901 10.115098
3796 2 2.193147 34.66354 3.699361
3797 2 2.232335 35.415335 5.129453
3798 5 1.780233 35.389673 4.224206
3799 2 34.518224 28.080393 5.845681
3800 2 34.984194 28.732018 7.249303
3801 5 34.273664 28.748988 6.528618
3802 2 32.014021 24.789037 12.766133
3803 2 31.510587 24.626683 14.293252
3804 5 31.657961 25.286575 13.540025
3805 2 15.151178 22.776892 3.318708
3806 2 14.632982 23.067276 1.815695
3807 5 15.19745 23.424653 2.57608
3808 2 38.46872 25.467897 14.22277
3809 2 37.159688 24.815297 14.910117
3810 5 38.145239 24.681174 14.722429
3811 2 3.659083 35.077634 12.545305
3812 2 4.574516 34.878065 11.228471
3813 5 4.45607 35.419805 12.075238
3814 2 17.458998 1.273641 1.0001
3815 2 19.021202 1.48185 1.357959
3816 5 18.102161 1.313152 1.747101
3817 2 56.675984 34.960256 9.845164
3818 2 55.491026 34.282705 8.979892
3819 5 55.795724 35.133907 9.435019
3820 2 55.360189 24.020391 1.214044
3821 2 53.976178 23.468634 1.840121
3822 5 54.538061 23.518991 0.999717
3823 2 17.979284 3.600257 1.034616
3824 2 18.333034 3.321655 2.586756
3825 5 18.646765 3.777328 1.739135
3826 2 12.443034 10.379636 15.013323
3827 2 13.353294 9.128548 14.546311
3828 5 13.250105 9.85919 15.239162
3829 2 22.218772 10.676905 1.351555
3830 2 22.583376 11.487 2.701631
3831 5 22.142862 11.555911 1.792936
3832 2 9.887829 8.926476 3.701035
3833 2 11.07712 10.004912 3.886665
3834 5 10.546637 9.471778 3.209255
3835 2 40.631849 16.682844 10.516429
3836 2 39.188282 15.984996 10.718963
3837 5 40.177672 15.810661 10.595504
3838 2 46.898348 29.172274 6.312395
3839 2 46.527913 29.62925 7.817668
3840 5 46.144891 29.336288 6.927728
3841 2 61.123583 18.641023 3.907783
3842 2 61.115201 17.078751 4.321464
3843 5 61.162146 18.02511 4.677454
3844 2 14.376179 4.013068 2.9541
3845 2 13.645402 2.630565 3.362204
3846 5 13.679938 3.627001 3.536707
3847 2 19.912259 2.842995 4.33383
3848 2 19.970958 3.17819 5.913734
3849 5 19.774918 3.56021 4.997133
3850 2 42.54985 15.298014 7.016738
3851 2 41.46713 14.226798 6.476266
3852 5 42.449706 14.382639 6.662774
3853 2 57.243183 10.040317 16.491376
3854 2 56.942624 10.482705 18.016451
3855 5 56.657149 9.86669 17.265746
3856 2 55.439395 29.42403 12.826011
3857 2 56.886721 30.134343 12.713762
3858 5 56.212654 29.556365 12.227857
3859 2 36.272263 30.938549 12.908053
3860 2 37.4125 31.222931 14.017505
3861 5 36.424446 31.055027 13.875784
3862 2 41.871215 21.894351 10.354419
3863 2 40.431864 21.851084 11.088102
3864 5 41.425581 21.705526 11.214062
3865 2 42.197864 2.548978 0.995702
3866 2 42.878843 1.61719 2.127044
3867 5 42.894218 2.532079 1.694298
3868 2 39.380539 18.671566 7.38368
3869 2 39.960635 18.250477 8.832151
3870 5 40.176156 18.725102 7.964505
3871 2 48.461497 1.761678 0.98836
3872 2 48.201565 2.903413 2.10226
3873 5 47.91657 2.55776 1.194609
3874 2 18.164977 32.058434 14.803999
3875 2 17.120306 32.404344 13.620401
3876 5 17.351343 32.574108 14.591138
3877 2 12.848981 26.059996 10.476624
3878 2 14.33636 26.68065 10.356672
3879 5 13.353139 26.860628 10.197261
3880 2 26.624472 12.549534 15.57664
3881 2 27.455585 12.574341 14.190807
3882 5 27.185119 12.000029 14.979186
3883 2 27.379106 15.308815 1.752454
3884 2 28.939148 14.887079 1.76992
3885 5 28.229412 15.398008 1.260259
3886 2 48.812275 19.821746 1.861882
3887 2 48.116091 20.678672 3.042094
3888 5 48.208402 20.581524 2.038815
3889 2 34.349034 19.742525 7.542892
3890 2 33.826048 18.509765 8.447704
3891 5 34.333264 18.758262 7.607758
3892 2 39.588765 20.78722 9.356561
3893 2 40.603417 19.852431 10.198313
3894 5 40.516957 20.45463 9.389358
3895 2 17.16385 14.594729 11.486057
3896 2 17.587905 16.132785 11.743848
3897 5 17.579774 15.38327 11.063635
3898 2 37.231871 19.379788 13.914099
3899 2 36.652303 18.297246 12.863338
3900 5 37.396266 18.489501 13.522188
3901 2 26.875442 9.26265 17.144115
3902 2 26.898755 8.904997 15.568223
3903 5 27.385543 8.785318 16.447564
3904 2 5.840607 31.099434 4.964858
3905 2 6.252427 30.449194 3.543771
3906 5 5.907185 30.246608 4.473445
3907 2 19.354876 14.934847 12.283084
3908 2 18.202368 14.837612 13.411873
3909 5 19.18544 15.017485 13.251429
3910 2 55.783549 22.868625 3.04105
3911 2 55.121117 22.250884 4.37951
3912 5 55.044402 22.305091 3.371689
3913 2 22.93558 5.560016 4.191887
3914 2 23.128639 6.142872 5.686846
3915 5 22.621156 6.254358 4.818192
3916 2 3.775816 18.646243 4.238234
3917 2 4.258395 18.559651 2.698262
3918 5 4.503173 18.327943 3.652685
3919 2 47.006677 4.934253 12.685152
3920 2 46.626721 5.317035 11.161667
3921 5 46.972497 5.680488 12.040796
3922 2 33.398739 28.252017 13.571016
3923 2 33.149687 29.848843 13.574669
3924 5 33.265428 29.034343 12.984991
3925 2 16.219398 10.274839 11.710345
3926 2 15.650415 9.903323 13.176677
3927 5 15.856757 9.537187 12.255865
3928 2 22.938672 26.091823 14.545265
3929 2 22.549275 27.191733 15.663507
3930 5 22.41056 26.234161 15.366282
3931 2 25.536732 5.490392 7.834207
3932 2 26.820129 5.469008 8.81621
3933 5 26.247404 4.909969 8.196541
3934 2 38.375804 15.608942 15.88968
3935 2 38.044456 14.568398 17.081054
3936 5 37.785327 15.453804 16.664599
3937 2 2.510501 5.625546 16.406756
3938 2 0.999933 5.49017 16.965105
3939 5 1.976324 5.339356 17.185203
3940 2 27.911228 10.462491 6.398019
3941 2 27.146441 11.692569 5.681147
3942 5 27.029226 10.890257 6.287022
3943 2 9.957344 22.109723 16.626276
3944 2 9.088303 22.699853 17.85445
3945 5 9.604926 21.895259 17.5224
3946 2 53.329502 20.806553 4.439241
3947 2 54.069971 19.389894 4.677311
3948 5 54.139321 20.288768 4.217154
3949 2 6.266785 28.376459 10.82839
3950 2 6.065689 29.016833 9.358227
3951 5 6.667536 28.994059 10.171731
3952 2 43.486824 3.294672 15.915687
3953 2 43.926749 2.566929 14.541368
3954 5 43.381055 2.467824 15.388082
3955 2 18.076059 20.449648 5.385307
3956 2 17.04937 19.317771 4.859322
3957 5 18.000433 19.659083 4.800056
3958 2 23.933092 31.626496 0.973551
3959 2 24.495288 32.387338 2.283876
3960 5 24.386245 32.447683 1.279388
3961 2 11.044374 25.440352 4.201976
3962 2 9.665041 24.668829 4.539745
3963 5 10.562006 24.588835 4.077595
3964 2 41.347786 19.202774 3.889331
3965 2 39.874066 18.940411 3.280061
3966 5 40.861645 18.976713 3.061204
3967 2 33.224448 14.92006 3.530171
3968 2 33.677148 15.918722 4.71745
3969 5 33.051857 15.805441 3.929601
3970 2 8.455008 5.676587 3.452021
3971 2 10.036787 5.480132 3.718996
3972 5 9.159011 4.99675 3.576247
3973 2 42.153405 7.867499 8.697834
3974 2 41.380964 7.734204 10.11115
3975 5 41.927352 7.235171 9.420532
3976 2 5.177059 6.639659 8.540014
3977 2 5.951787 5.625649 9.531716
3978 5 5.703996 6.594083 9.372775
3979 2 58.011866 20.498208 8.814458
3980 2 56.66422 19.901217 8.151625
3981 5 57.115265 20.144363 9.024532
3982 2 7.102358 2.906512 13.545129
3983 2 7.474452 2.600357 15.08776
3984 5 6.985213 3.23397 14.468319
3985 2 48.212952 11.262237 3.645425
3986 2 47.138357 11.39271 4.845474
3987 5 47.260554 11.141547 3.872586
3988 2 18.432585 14.300037 9.349849
3989 2 19.476112 15.330062 8.670147
3990 5 18.562585 15.244873 9.097627
3991 2 44.340348 15.650574 4.191976
3992 2 44.301928 15.069797 5.699662
3993 5 44.711447 14.952049 4.781536
3994 2 34.495537 4.693418 4.219547
3995 2 34.813818 4.327372 5.76117
3996 5 35.227898 4.549163 4.86458
3997 2 16.44069 35.416908 12.735276
3998 2 17.023703 34.82257 11.350085
3999 5 16.315134 35.420112 11.756779
4000 2 17.96048 7.857204 5.973616
4001 2 17.923136 7.603319 4.377983
4002 5 17.356979 7.789125 5.196195
4003 2 44.647857 18.544099 9.802366
4004 2 44.850615 20.050304 10.352032
4005 5 44.476968 19.493126 9.594095
4006 2 61.286199 23.257456 12.633098
4007 2 59.763832 23.030157 13.125672
4008 5 60.342848 23.403704 12.384235
4009 2 20.930296 13.585959 5.1152
4010 2 22.398661 13.314331 5.733277
4011 5 21.414357 13.095292 5.821005
4012 2 8.155175 8.424378 17.353743
4013 2 8.135607 6.970024 18.058277
4014 5 7.570816 7.663912 17.584929
4015 2 27.876284 5.862949 16.099199
4016 2 28.601507 5.926739 14.656328
4017 5 28.731446 5.701575 15.634563
4018 2 57.314586 6.261079 5.63995
4019 2 55.889991 6.016233 4.917125
4020 5 56.36166 6.071578 5.810988
4021 2 49.723663 18.42782 6.247056
4022 2 49.550633 18.432199 7.853897
4023 5 49.24097 17.999141 6.993027
4024 2 50.98645 26.680474 5.481742
4025 2 50.683121 27.145711 6.999451
4026 5 50.260458 26.862605 6.124389
4027 2 21.420658 28.799793 3.132614
4028 2 22.887806 28.200668 2.815723
4029 5 22.328231 28.689315 3.503202
4030 2 25.839004 2.028429 2.397408
4031 2 26.15762 3.319144 1.478477
4032 5 26.567564 2.527225 1.957369
4033 2 20.347667 13.470395 10.32715
4034 2 21.564848 13.430418 9.264716
4035 5 20.56488 13.548407 9.368003
4036 2 26.548076 12.418378 7.802502
4037 2 27.93184 11.790357 8.352669
4038 5 26.925999 11.678612 8.334621
4039 2 51.869257 8.425269 14.185976
4040 2 51.795473 6.89893 14.712038
4041 5 51.256946 7.664802 14.327387
4042 2 36.144352 9.272072 15.165633
4043 2 36.225247 9.816661 16.685099
4044 5 36.438985 9.036162 16.077098
4045 2 20.387637 31.113537 9.672733
4046 2 20.127045 32.645352 10.117178
4047 5 19.901582 31.679324 10.318385
4048 2 33.165126 7.263152 3.19944
4049 2 32.265471 8.605707 3.191453
4050 5 32.99187 8.103577 3.686163
4051 2 20.254913 15.292306 3.90301
4052 2 20.804855 16.229152 2.706441
4053 5 20.43901 16.227948 3.650201
4054 2 54.750248 28.193333 6.496426
4055 2 54.918035 28.872257 7.95341
4056 5 55.0345 29.017319 6.958463
4057 2 55.144226 12.139927 12.398273
4058 2 54.790599 11.374404 11.019572
4059 5 54.610652 11.403866 12.015201
4060 2 12.147435 8.035515 10.87135
4061 2 12.583834 7.790915 9.334593
4062 5 12.43738 7.343615 10.230697
4063 2 28.972495 19.745635 6.170267
4064 2 28.531366 18.862133 7.449613
4065 5 29.287988 19.061929 6.807638
4066 2 40.114488 9.488984 9.720682
4067 2 40.205567 9.180458 8.136885
4068 5 39.832886 8.854497 9.019713
4069 2 17.571349 29.898909 1.867327
4070 2 16.892473 31.297028 1.424284
4071 5 17.597883 30.874074 2.014228
4072 2 52.429357 22.966979 12.200825
4073 2 52.038362 23.219049 13.748559
4074 5 51.73217 22.801412 12.878873
4075 2 20.623687 20.227862 13.680835
4076 2 20.260638 19.886768 15.218283
4077 5 20.081068 19.636194 14.254181
4078 2 38.466543 27.299173 9.621277
4079 2 39.242245 26.595834 8.390222
4080 5 39.3283 26.902175 9.351095
4081 2 59.64656 7.310194 7.411613
4082 2 59.1918 7.385873 5.862625
4083 5 59.403359 7.933843 6.686943
4084 2 47.957336 0.960632 9.337879
4085 2 46.505009 1.310823 9.954328
4086 5 47.014981 1.128632 9.099189
4087 2 9.571208 14.896961 4.361872
4088 2 9.716976 14.324107 5.866028
4089 5 10.097349 14.284644 4.928859
4090 2 22.590008 19.463993 10.593014
4091 2 23.675612 20.420839 9.873428
4092 5 23.099553 19.596505 9.758727
4093 2 29.503484 15.256729 11.087952
4094 2 29.613065 15.881481 9.601489
4095 5 29.642952 16.096887 10.590041
4096 2 8.712963 30.176923 0.986945
4097 2 7.778574 28.860327 1.060357
4098 5 7.780363 29.872089 1.089732
4099 2 49.157191 32.05995 14.511082
4100 2 50.601309 32.548629 15.047377
4101 5 49.618614 32.474335 15.278287
4102 2 36.150275 29.922633 2.241463
4103 2 36.699645 29.024663 1.015193
4104 5 36.79493 29.214343 2.004875
4105 2 20.28517 21.659147 11.676507
4106 2 20.713377 22.518355 12.976621
4107 5 20.882369 22.379819 11.9883
4108 2 6.646264 19.157038 12.263296
4109 2 7.183943 20.667675 12.061367
4110 5 7.261535 19.71432 11.730276
4111 2 10.363736 25.755408 12.127687
4112 2 9.605161 25.16594 10.828077
4113 5 9.623921 25.924938 11.497477
4114 2 21.656787 21.127973 1.65069
4115 2 21.846751 20.615162 3.17149
4116 5 21.166185 20.842848 2.457687
4117 2 38.346593 4.563295 11.124689
4118 2 38.874991 3.839383 9.779832
4119 5 39.160813 4.279816 10.645194
4120 2 51.268802 3.794248 1.48327
4121 2 52.547689 2.975485 2.036417
4122 5 51.836764 3.654384 2.277681
4123 2 1.619779 8.447055 12.911798
4124 2 2.913715 7.670176 12.333799
4125 5 2.603347 8.486048 12.846197
4126 2 40.295243 32.119489 5.748077
4127 2 39.246703 31.071785 5.104046
4128 5 40.12551 31.159241 5.598594
4129 2 10.570811 1.261261 14.969835
4130 2 8.981901 0.998225 15.104276
4131 5 9.684618 1.659128 14.797805
4132 2 30.835389 24.513384 16.600984
4133 2 32.070985 24.765416 17.611766
4134 5 31.74937 24.880146 16.658913
4135 2 47.984046 21.443549 8.838276
4136 2 47.545428 22.997703 8.774121
4137 5 47.351289 22.104021 9.207906
4138 2 44.735276 10.410943 15.685439
4139 2 43.810948 10.880335 16.925271
4140 5 43.831409 10.334315 16.073232
4141 2 26.409283 20.59037 2.978782
4142 2 26.788536 19.826066 1.606229
4143 5 27.066095 20.562075 2.243236
4144 2 30.272332 33.280465 14.183779
4145 2 31.127486 34.494326 14.821862
4146 5 30.477801 34.240623 14.088328
4147 2 28.745449 7.263287 18.353284
4148 2 29.1458 7.5151 16.807901
4149 5 29.245009 6.883093 17.592282
4150 2 15.853335 20.960325 12.750191
4151 2 15.912439 19.345389 12.730604
4152 5 15.449955 20.148066 13.138458
4153 2 57.867425 18.280022 15.339637
4154 2 56.706007 17.375074 16.006025
4155 5 56.890858 18.14483 15.375284
4156 2 16.631108 22.01959 5.941971
4157 2 15.41902 23.084115 5.844372
4158 5 15.955997 22.397473 5.329876
4159 2 47.207179 19.816702 10.905221
4160 2 47.04421 19.380448 12.452806
4161 5 46.579819 19.41869 11.554248
4162 2 56.486829 26.308512 7.256465
4163 2 56.290241 26.899215 8.74788
4164 5 55.888618 26.854365 7.819863
4165 2 28.053949 33.692801 15.459189
4166 2 28.761249 32.240073 15.424476
4167 5 28.807892 33.16991 15.82166
4168 2 10.075475 11.734622 2.743949
4169 2 9.713596 13.304291 2.874635
4170 5 10.050622 12.491947 3.375671
4171 2 37.565777 5.245479 14.395682
4172 2 36.973045 4.338771 13.196331
4173 5 37.083555 5.285842 13.535994
4174 2 39.65393 16.15362 13.023955
4175 2 39.511287 14.627057 13.534986
4176 5 39.710393 15.576945 13.822383
4177 2 22.746673 6.800405 2.281393
4178 2 21.799927 6.514982 1.003072
4179 5 22.235146 7.238912 1.56078
4180 2 59.728237 8.468714 15.400845
4181 2 58.743169 8.00148 16.593837
4182 5 58.947505 8.744253 15.937284
4183 2 29.423486 12.771325 4.924022
4184 2 28.578365 13.027035 3.570405
4185 5 28.647332 13.255077 4.554157
4186 2 7.090279 27.197064 13.186135
4187 2 6.285244 26.296057 12.112822
4188 5 7.083468 26.904457 12.244027
4189 2 12.299044 11.205092 2.447411
4190 2 11.876866 11.795665 1.003498
4191 5 12.169815 10.963502 1.499696
4192 2 59.571048 9.732681 3.597005
4193 2 60.090837 9.216556 5.037605
4194 5 60.330434 9.771258 4.225555
4195 2 32.375716 27.8085 7.089695
4196 2 31.871382 28.881094 5.991021
4197 5 32.179797 27.927124 6.130125
4198 2 42.310868 31.301128 5.41166
4199 2 41.905839 31.023376 6.951368
4200 5 42.678644 31.081155 6.300245
4201 2 47.021682 18.859733 3.620016
4202 2 47.084286 18.486111 5.191125
4203 5 47.007117 18.105912 4.256234
4204 2 46.185864 5.971494 5.732312
4205 2 46.197657 6.858381 4.381317
4206 5 46.211544 6.89735 5.392661
4207 2 19.078935 17.106363 10.451212
4208 2 18.27903 18.380092 11.042536
4209 5 18.874756 18.058014 10.29027
4210 2 30.199314 14.492689 3.605273
4211 2 31.502555 13.661374 4.076838
4212 5 30.737057 13.687758 3.415141
4213 2 50.365773 22.267408 6.888456
4214 2 48.917914 22.966047 7.054298
4215 5 49.680956 22.523538 7.550766
4216 2 26.891833 25.529106 14.883539
4217 2 26.076186 26.915815 14.729748
4218 5 26.478377 26.136135 14.224904
4219 2 35.17847 28.276692 11.547419
4220 2 35.708843 28.041006 10.039091
4221 5 34.919023 27.927744 10.661895
4222 2 38.71972 20.26504 11.308309
4223 2 38.521715 20.790916 12.823612
4224 5 38.114152 20.229846 12.086306
4225 2 34.704622 4.190333 16.725272
4226 2 34.669834 5.381594 17.816868
4227 5 34.133898 4.898826 17.106773
4228 2 1.004485 25.468631 6.966917
4229 2 1.91624 24.701944 8.059065
4230 5 0.999835 24.738986 7.630865
4231 2 41.658945 7.201023 17.671928
4232 2 43.018202 7.452439 18.509249
4233 5 42.172891 7.886666 18.160787
4234 2 15.598405 26.257033 4.958308
4235 2 16.880663 26.328482 5.939433
4236 5 15.873709 26.231507 5.905297
4237 2 58.65762 13.762662 0.981313
4238 2 58.11706 12.427131 1.713464
4239 5 58.898754 12.835486 1.216748
4240 2 36.454797 16.219801 7.58305
4241 2 35.321376 16.807576 8.573895
4242 5 36.076972 16.139223 8.490787
4243 2 61.988527 11.124215 10.701796
4244 2 61.017555 12.384658 10.418258
4245 5 61.889593 12.095543 10.843098
4246 2 55.181044 31.582164 6.839981
4247 2 55.079438 31.029687 8.355349
4248 5 55.649696 31.041519 7.519172
4249 2 12.580842 19.102117 13.58436
4250 2 11.519291 18.499021 14.643266
4251 5 11.705608 18.653326 13.660411
4252 2 60.461529 6.249507 10.913183
4253 2 59.289389 6.746732 9.917818
4254 5 60.142917 6.206282 9.980526
4255 2 37.128641 13.685689 5.860412
4256 2 37.015714 13.903815 7.457774
4257 5 37.086272 14.375107 6.564783
4258 2 25.818831 14.475643 7.47848
4259 2 25.753993 15.0319 5.962476
4260 5 26.253044 15.090828 6.841113
4261 2 18.866775 20.092983 12.291011
4262 2 17.63216 20.483814 11.324123
4263 5 17.911831 20.340555 12.286301
4264 2 32.901001 22.15737 6.614805
4265 2 33.083454 22.091567 8.21926
4266 5 33.416215 21.724911 7.336446
4267 2 15.745255 1.747472 7.647877
4268 2 17.189966 2.368391 8.020925
4269 5 16.190609 2.523151 8.064066
4270 2 14.218051 23.591239 10.619474
4271 2 14.381104 24.185476 12.113526
4272 5 14.140999 24.414663 11.157309
4273 2 56.491091 27.778324 5.216643
4274 2 57.277529 28.654761 4.109725
4275 5 57.256962 27.76668 4.594922
4276 2 46.645894 4.460894 2.206373
4277 2 47.686102 4.736916 1.000688
4278 5 46.708722 4.744988 1.263732
4279 2 20.495089 23.132474 15.79129
4280 2 20.219434 21.693509 16.473411
4281 5 20.869546 22.227629 15.910741
4282 2 27.315806 13.814104 12.156044
4283 2 25.83033 13.671511 12.776467
4284 5 26.365361 14.021053 11.991553
4285 2 15.129989 17.895781 8.351197
4286 2 15.881164 16.700095 7.565089
4287 5 15.967232 17.655517 7.888025
4288 2 19.39411 27.982518 2.880902
4289 2 18.094555 28.631836 3.589025
4290 5 19.093537 28.491003 3.671047
4291 2 20.996616 28.644286 9.380604
4292 2 21.028394 28.074575 7.868547
4293 5 21.298453 27.886491 8.825741
4294 2 12.096804 4.093671 9.301966
4295 2 12.000206 4.499658 7.74064
4296 5 12.48205 3.914689 8.411583
4297 2 37.192724 11.596377 6.583485
4298 2 35.732947 12.259337 6.787037
4299 5 36.243181 11.385993 6.748826
4300 2 26.652495 20.537894 16.561535
4301 2 26.837284 18.93644 16.447104
4302 5 26.164783 19.692381 16.418441
4303 2 31.213621 23.49435 7.283556
4304 2 31.183441 23.956783 5.735286
4305 5 31.707221 24.006525 6.599987
4306 2 43.170487 7.831816 11.387909
4307 2 42.958674 7.352506 12.91673
4308 5 42.674192 8.027144 12.21783
4309 2 41.747783 11.439711 16.40423
4310 2 41.386283 11.366285 14.830756
4311 5 41.184395 11.841725 15.70123
4312 2 57.592623 19.20491 6.067758
4313 2 57.184919 18.845478 4.545759
4314 5 56.856962 19.253139 5.412237
4315 2 19.519382 32.739111 17.383464
4316 2 20.965021 32.406659 18.024946
4317 5 20.490781 32.806718 17.22521
4318 2 5.179222 32.62353 6.758599
4319 2 6.632634 33.320103 6.878081
4320 5 5.835037 33.17669 6.271617
4321 2 54.01712 9.792798 0.999875
4322 2 55.407883 10.043062 1.784121
4323 5 54.482649 10.41408 1.608581
4324 2 58.171554 2.886424 12.642825
4325 2 58.565666 1.880925 11.440518
4326 5 58.23464 1.933464 12.395604
4327 2 17.199312 34.025285 18.501895
4328 2 16.521473 35.414587 18.030442
4329 5 17.209129 35.000977 18.647356
4330 2 39.48683 13.559123 11.143032
4331 2 39.27512 13.32013 9.558748
4332 5 38.963687 13.853978 10.360336
4333 2 28.883558 20.025804 0.967637
4334 2 29.370243 19.746217 2.483179
4335 5 29.592774 20.229869 1.622314
4336 2 42.971468 16.805818 5.472951
4337 2 41.556694 17.213512 4.806547
4338 5 42.092739 16.450249 5.199755
4339 2 25.694694 24.337066 2.08572
4340 2 24.5875 24.857461 1.029686
4341 5 25.320679 25.147013 1.664615
4342 2 16.488926 27.099766 10.182714
4343 2 17.706668 26.04268 10.290269
4344 5 17.472232 27.023777 10.206511
4345 2 21.739937 3.746619 2.28605
4346 2 22.013299 3.172772 3.77194
4347 5 21.697247 3.976732 3.244411
4348 2 49.869327 22.989534 14.034964
4349 2 48.500513 22.424077 14.681882
4350 5 49.490149 22.565142 14.840784
4351 2 41.190026 1.777941 14.975239
4352 2 39.732995 2.421973 14.70288
4353 5 40.396663 2.15935 15.420585
4354 2 8.170673 9.670967 9.597317
4355 2 9.126682 9.813189 10.892583
4356 5 9.107871 9.791493 9.880801
4357 2 11.369088 7.898349 4.961344
4358 2 11.795514 6.894846 3.768433
4359 5 11.779144 7.862539 4.064794
4360 2 33.465818 18.859933 5.237824
4361 2 32.607227 17.940683 4.223083
4362 5 33.033214 17.978678 5.140481
4363 2 28.646916 10.791785 4.349566
4364 2 29.474836 10.575306 2.978589
4365 5 28.636859 10.317668 3.484498
4366 2 21.772714 29.296142 1.018084
4367 2 22.433052 30.392837 2.004547
4368 5 22.492318 29.967338 1.08805
4369 2 56.563197 12.689551 15.125814
4370 2 56.522623 12.154951 16.650429
4371 5 56.151434 12.844242 16.00885
4372 2 11.006699 35.418466 8.836215
4373 2 12.078983 34.999295 9.970409
4374 5 11.917276 35.064526 8.973352
4375 2 8.725397 18.185847 16.781203
4376 2 8.488504 18.50794 18.347099
4377 5 8.159481 17.965259 17.558577
4378 2 24.672138 9.651161 8.351368
4379 2 24.828866 11.064123 7.582688
4380 5 24.280444 10.552187 8.262159
4381 2 61.064827 2.686328 4.497605
4382 2 59.696647 1.852175 4.287444
4383 5 60.484743 2.000267 4.905102
4384 2 52.287526 34.652483 15.071557
4385 2 51.579276 35.077257 13.682369
4386 5 52.102824 35.418858 14.478442
4387 2 12.953928 33.567196 3.946064
4388 2 12.389472 33.618236 2.432565
4389 5 12.456483 34.127789 3.30457
4390 2 56.578003 22.344989 11.111245
4391 2 58.175277 22.108709 11.042073
4392 5 57.276264 21.755583 10.739408
4393 2 21.859586 8.610935 6.121408
4394 2 21.237539 8.431388 7.60219
4395 5 21.432343 7.960441 6.727668
4396 2 4.834113 10.492523 11.817004
4397 2 6.442397 10.382536 11.931987
4398 5 5.66307 11.025086 11.866359
4399 2 9.589275 3.6617 1.655931
4400 2 10.995174 4.04385 2.355435
4401 5 10.263951 4.376563 1.73969
4402 2 54.816004 28.986341 10.630107
4403 2 53.513483 29.75299 10.057758
4404 5 54.524235 29.709509 10.025848
4405 2 49.679282 33.985159 7.706788
4406 2 48.61131 33.081549 8.515998
4407 5 49.506808 33.074329 8.044236
4408 2 43.877846 28.837096 16.768946
4409 2 42.850283 30.06935 16.962757
4410 5 43.812191 29.821434 16.76834
4411 2 45.92563 26.363058 13.54065
4412 2 45.714396 26.021979 11.975102
4413 5 45.249664 26.320251 12.823386
4414 2 8.5665 22.42817 9.092138
4415 2 7.948388 22.060145 10.539339
4416 5 8.237415 21.681304 9.646327
4417 2 33.56915 30.368208 9.242689
4418 2 33.217417 31.944949 9.28816
4419 5 32.852868 31.014467 9.448893
4420 2 62.020569 27.544174 10.261635
4421 2 60.902375 26.583633 10.924128
4422 5 61.803734 27.020701 11.069217
4423 2 31.985366 12.653112 11.301079
4424 2 31.94442 13.190487 12.824709
4425 5 32.516254 13.114213 11.993014
4426 2 44.499712 2.260842 4.617657
4427 2 43.792121 2.224889 6.070213
4428 5 43.865179 2.739751 5.20182
4429 2 25.674717 34.337252 0.997103
4430 2 26.989287 34.933194 1.724188
4431 5 26.049207 34.589322 1.874285
4432 2 29.101151 1.00082 13.058536
4433 2 29.481051 0.988101 14.629335
4434 5 28.901564 1.427522 13.925323
4435 2 12.315332 11.415782 9.243372
4436 2 13.756847 10.942491 8.686662
4437 5 13.024063 10.738593 9.35448
4438 2 52.263792 15.783906 8.770537
4439 2 51.564082 14.469933 9.399644
4440 5 52.379742 15.067975 9.439289
4441 2 1.000998 29.156943 13.891513
4442 2 1.000645 28.732749 12.332041
4443 5 1.138126 28.397381 13.277109
4444 2 48.285428 13.406646 4.133711
4445 2 49.121239 13.312346 5.513718
4446 5 49.117294 13.058628 4.533852
4447 2 22.735047 33.72479 12.048715
4448 2 23.304953 33.350433 10.583465
4449 5 22.941237 32.969897 11.448005
4450 2 22.815476 15.894503 5.978205
4451 2 22.339284 15.19802 4.599783
4452 5 23.130991 15.588519 5.094997
4453 2 43.445035 11.431271 8.514318
4454 2 43.070959 9.874569 8.73486
4455 5 42.83824 10.823395 8.999619
4456 2 17.044065 22.955397 1.475661
4457 2 18.25877 23.903337 0.988016
4458 5 17.991083 22.950331 1.199323
4459 2 13.810239 15.946154 1.408421
4460 2 13.562073 16.463676 2.919209
4461 5 14.26783 16.186321 2.248754
4462 2 37.266533 12.15115 2.927694
4463 2 37.675998 12.058058 4.488325
4464 5 38.012618 11.947532 3.54017
4465 2 62.15076 7.074576 5.953167
4466 2 62.166504 8.509276 5.209337
4467 5 61.621417 7.672409 5.373838
4468 2 57.262487 10.307283 9.120573
4469 2 56.708658 9.971821 7.639818
4470 5 56.474691 10.388092 8.532289
4471 2 16.070819 16.477168 9.744368
4472 2 14.636378 15.938898 9.230034
4473 5 15.576949 15.663968 9.483543
4474 2 37.549633 12.211587 8.760717
4475 2 38.734324 11.218845 9.232803
4476 5 37.809726 11.262019 8.82319
4477 2 41.490728 26.495846 9.359314
4478 2 42.973713 25.884196 9.163008
4479 5 42.040538 25.923891 8.772963
4480 2 15.457333 4.711509 13.536525
4481 2 16.061136 5.647753 12.365728
4482 5 16.244601 4.847546 12.95779
4483 2 60.680246 11.409973 2.423399
4484 2 61.727905 11.467689 1.194182
4485 5 61.571134 11.739167 2.156601
4486 2 32.837545 11.697367 14.886824
4487 2 32.196362 10.253103 15.225764
4488 5 32.381095 10.919652 14.486769
4489 2 62.159026 10.48346 13.158302
4490 2 62.128834 9.094238 12.333046
4491 5 61.599755 9.924407 12.568466
4492 2 58.643896 18.313835 13.071489
4493 2 58.733441 18.771383 11.524064
4494 5 59.19932 18.806647 12.421973
4495 2 45.156297 14.520428 10.919981
4496 2 45.139289 13.189846 11.837127
4497 5 45.68781 13.995629 11.564426
4498 2 25.1167 3.246053 9.086585
4499 2 26.706402 3.07482 9.322003
4500 5 25.794919 2.980245 9.751864
4501 2 44.555666 18.76134 12.111624
4502 2 45.011752 20.059897 12.958755
4503 5 44.93493 19.05076 12.97512
4504 2 5.70185 6.909231 4.963093
4505 2 5.026021 7.104162 3.508049
4506 5 5.340312 7.584713 4.341608
4507 2 30.631377 21.820522 5.977757
4508 2 30.932564 21.894632 4.391664
4509 5 31.266497 21.537501 5.277933
4510 2 45.174585 22.14447 10.946524
4511 2 44.835517 22.133397 9.366395
4512 5 44.467017 22.337552 10.286752
4513 2 14.110535 34.988944 9.126708
4514 2 13.990739 34.09758 7.783944
4515 5 13.881252 34.090389 8.790169
4516 2 45.056433 12.392447 6.251905
4517 2 45.783938 11.670619 7.501543
4518 5 45.716028 11.699265 6.492041
4519 2 32.219578 11.67533 4.696387
4520 2 31.569284 10.629006 3.650338
4521 5 31.420162 11.124797 4.520098
4522 2 57.181611 10.348907 11.523555
4523 2 57.503525 11.105162 12.915082
4524 5 56.78635 10.628529 12.383096
4525 2 53.663614 25.739934 5.595726
4526 2 53.246302 25.385769 4.075097
4527 5 52.915139 25.764223 4.953521
4528 2 48.734401 12.289364 14.887615
4529 2 49.034945 11.672471 13.424396
4530 5 48.326932 11.795233 14.137259
4531 2 40.865484 20.75602 6.65217
4532 2 39.831371 21.762255 7.38018
4533 5 40.049916 20.789371 7.206217
4534 2 40.457969 8.402083 11.961405
4535 2 38.96447 8.710491 11.426393
4536 5 39.685642 8.003537 11.494606
4537 2 58.25757 25.044617 7.576893
4538 2 58.226007 25.652067 6.079594
4539 5 58.804619 25.504592 6.896899
4540 2 30.029622 19.806677 13.512334
4541 2 29.827305 19.142983 12.05272
4542 5 30.292786 19.881835 12.564532
4543 2 12.49838 30.742106 3.270466
4544 2 13.136538 30.945272 4.741307
4545 5 13.339915 30.69145 3.782798
4546 2 31.851206 30.366531 17.537207
4547 2 32.380742 29.83609 16.105383
4548 5 32.473734 30.567579 16.798783
4549 2 39.256378 28.184506 18.242766
4550 2 40.769604 28.336373 17.695978
4551 5 39.847907 27.977593 17.480853
4552 2 28.767077 26.576467 2.194164
4553 2 28.165125 27.485541 1.001212
4554 5 28.845486 27.453832 1.749966
4555 2 31.000581 18.752905 5.483551
4556 2 30.755613 19.69191 4.191206
4557 5 30.599929 18.771375 4.582236
4558 2 41.913935 29.300408 8.680759
4559 2 40.403911 29.718452 9.076942
4560 5 41.228548 29.21926 9.385663
4561 2 29.727774 4.264582 11.04087
4562 2 30.98323 4.749799 10.14628
4563 5 30.234341 5.060402 10.752265
4564 2 24.659116 22.641094 16.993468
4565 2 24.544012 21.092106 17.439881
4566 5 24.552377 21.723052 16.648449
4567 2 53.455215 13.777009 5.397664
4568 2 53.382903 14.280433 3.863639
4569 5 53.795257 14.458566 4.7707
4570 2 36.259541 26.643897 14.082901
4571 2 36.657343 26.998368 12.557122
4572 5 37.002437 26.94352 13.507085
4573 2 57.179361 32.339678 8.422532
4574 2 57.255993 32.654099 6.83913
4575 5 57.802558 32.531292 7.682167
4576 2 23.540935 7.685843 12.869801
4577 2 24.079882 8.718527 13.990066
4578 5 24.079531 7.750673 13.693781
4579 2 22.486941 17.561574 1.041625
4580 2 22.48008 18.878521 1.978373
4581 5 22.629591 18.53772 1.037083
4582 2 2.248256 7.606428 10.15094
4583 2 3.462471 6.565929 9.916545
4584 5 3.045185 7.430819 9.596597
4585 2 19.162603 8.009502 1.347668
4586 2 20.511087 8.899377 1.387793
4587 5 19.58641 8.82245 0.983341
4588 2 13.19295 20.461369 3.161727
4589 2 11.593159 20.360049 3.367397
4590 5 12.489468 20.029707 3.702109
4591 2 51.363275 9.269837 5.348875
4592 2 52.097545 9.750015 3.991608
4593 5 52.072213 9.032584 4.705175
4594 2 37.883037 7.315607 17.843726
4595 2 36.646938 7.867403 18.726604
4596 5 37.175765 8.002678 17.874213
4597 2 14.642417 26.263131 12.788299
4598 2 14.339281 26.316864 14.374842
4599 5 14.091395 25.86545 13.50346
4600 2 18.085894 22.294853 3.298115
4601 2 16.791165 21.338974 3.150237
4602 5 17.759208 21.375437 3.443651
4603 2 9.614101 1.895205 10.144754
4604 2 8.954299 1.073904 8.919184
4605 5 9.826444 1.33048 9.364224
4606 2 25.988978 6.493674 15.161116
4607 2 26.675302 6.394661 13.701304
4608 5 25.794215 6.465783 14.19441
4609 2 40.906041 29.477287 3.856583
4610 2 40.899005 27.887208 4.145534
4611 5 40.511823 28.620999 3.565734
4612 2 57.263059 34.663933 7.733345
4613 2 57.241866 35.11285 6.180953
4614 5 57.074321 35.421497 7.130265
4615 2 20.058099 28.094259 64.842074
4616 2 20.43271 29.088426 63.62421
4617 5 19.6791 28.748092 64.207966
4618 2 47.593824 17.458218 69.365314
4619 2 47.731179 16.044607 68.594123
4620 5 47.295521 16.51793 69.375593
4621 2 54.675617 14.497147 76.744737
4622 2 54.114773 13.57154 77.944988
4623 5 54.478059 14.486911 77.711224
4624 2 10.021371 34.691125 65.318975
4625 2 9.460098 35.414823 66.650564
4626 5 9.393005 34.58679 66.072301
4627 2 8.957448 6.474366 77.27421
4628 2 9.314549 7.064208 78.735874
4629 5 9.433394 7.202083 77.740186
4630 2 5.56192 17.40962 65.188191
4631 2 5.309118 18.273332 66.530573
4632 5 5.171308 18.249334 65.528096
4633 2 60.265075 33.142553 65.590717
4634 2 58.951861 32.386529 66.152671
4635 5 59.683231 32.35778 65.45353
4636 2 8.995454 10.770241 65.219189
4637 2 8.047621 9.525539 64.813941
4638 5 8.321569 10.467693 64.565296
4639 2 18.771783 31.397126 64.824865
4640 2 18.430855 31.968693 66.297609
4641 5 18.228449 31.233596 65.631883
4642 2 23.471425 13.367796 67.442882
4643 2 22.891706 14.742438 66.821446
4644 5 22.93256 14.166956 67.653118
4645 2 37.27058 13.598778 71.198503
4646 2 38.137146 14.734272 70.442451
4647 5 38.095189 14.136967 71.258536
4648 2 47.51814 23.980077 78.792692
4649 2 47.934731 25.28967 77.942213
4650 5 48.250897 24.621078 78.633264
4651 2 15.116655 18.793001 69.548144
4652 2 14.520366 18.915946 68.051074
4653 5 14.278472 18.809294 69.02813
4654 2 53.476984 23.591188 68.303184
4655 2 54.250717 23.701309 69.717789
4656 5 54.333588 23.84801 68.719721
4657 2 25.55872 10.899997 65.055235
4658 2 25.156084 12.46459 65.012501
4659 5 25.55495 11.701616 64.480238
4660 2 45.669714 1.216709 70.716475
4661 2 46.299551 1.536815 72.17
4662 5 45.59594 1.002068 71.676536
4663 2 5.376235 5.514032 76.195965
4664 2 4.603152 6.161243 74.932891
4665 5 4.556793 5.448934 75.650522
4666 2 26.004871 34.138052 71.695566
4667 2 25.165776 35.100501 70.704855
4668 5 25.99162 35.035669 71.286496
4669 2 4.729024 22.683843 67.784296
4670 2 4.39666 23.334068 66.342549
4671 5 4.682543 23.53748 67.291981
4672 2 55.344624 24.364622 74.002632
4673 2 54.254158 24.92149 75.057468
4674 5 55.161423 25.092683 74.642629
4675 2 33.350044 31.881421 73.18243
4676 2 33.002582 30.497521 72.423492
4677 5 33.214885 31.478443 72.292165
4678 2 44.824156 5.797719 74.256607
4679 2 43.356344 6.46588 74.361418
4680 5 44.116165 6.058888 74.892037
4681 2 9.577963 3.821589 71.457984
4682 2 9.615457 3.690314 69.847625
4683 5 9.214904 4.202346 70.623452
4684 2 42.071497 10.854654 78.17141
4685 2 42.093449 11.080059 79.771599
4686 5 41.980203 11.538673 78.876403
4687 2 60.218482 28.111734 64.262913
4688 2 61.037032 29.006392 65.331303
4689 5 60.882652 28.065737 64.990919
4690 2 29.140224 9.411598 74.892512
4691 2 27.644214 9.95054 74.603735
4692 5 28.245303 9.136457 74.581635
4693 2 8.526848 26.019234 75.258415
4694 2 6.989173 25.650173 74.924881
4695 5 7.751529 25.496437 75.572729
4696 2 47.107446 27.778898 73.404768
4697 2 47.774401 29.175858 72.940472
4698 5 47.963159 28.265638 73.340969
4699 2 8.323565 30.226916 77.167966
4700 2 9.17891 28.884201 77.446171
4701 5 8.624742 29.612501 77.878612
4702 2 6.664789 7.129826 72.596225
4703 2 7.631743 7.807644 73.69961
4704 5 6.979285 7.995782 72.94899
4705 2 34.234337 34.102683 74.90773
4706 2 32.848756 34.786366 75.381691
4707 5 33.44909 33.978919 75.49194
4708 2 47.537524 14.708034 66.722497
4709 2 46.704972 13.972035 65.549016
4710 5 46.650584 14.345039 66.488397
4711 2 48.833864 0.999342 67.176586
4712 2 49.306683 1.95957 68.387495
4713 5 49.295414 1.005917 68.048457
4714 2 30.342108 11.245669 74.476465
4715 2 29.186435 12.368047 74.605251
4716 5 29.526176 11.595595 74.046304
4717 2 5.157297 26.879674 69.57269
4718 2 6.465887 26.720156 68.637788
4719 5 6.143758 26.880263 69.583899
4720 2 62.159355 26.989678 68.336941
4721 2 61.464943 27.107252 66.882341
4722 5 61.669206 27.60378 67.740399
4723 2 46.70726 9.495806 79.88353
4724 2 46.494606 7.915676 80.147844
4725 5 46.55585 8.630755 79.434095
4726 2 42.662247 16.288265 80.020779
4727 2 43.03784 14.721088 79.899204
4728 5 42.275785 15.38715 79.911835
4729 2 30.9408 17.38189 74.355746
4730 2 29.747025 16.352422 74.712103
4731 5 30.408323 17.013315 75.099958
4732 2 28.125104 17.137553 73.128789
4733 2 27.153321 17.531889 71.899143
4734 5 27.767892 17.899764 72.614333
4735 2 20.803548 30.378511 67.646075
4736 2 19.325683 30.015892 67.101725
4737 5 20.163089 30.55341 66.91638
4738 2 9.562429 32.262989 80.14153
4739 2 8.711112 32.96739 78.962134
4740 5 8.90786 32.977108 79.95497
4741 2 18.130332 25.351206 79.060276
4742 2 18.972767 24.003354 79.352667
4743 5 18.602499 24.849635 79.766474
4744 2 36.132021 7.850751 75.450149
4745 2 35.263688 6.565915 75.905221
4746 5 35.211043 7.527336 75.593089
4747 2 24.342705 5.758733 72.131871
4748 2 24.11301 6.053248 73.704257
4749 5 23.649176 5.921896 72.814239
4750 2 39.726531 5.841663 69.366715
4751 2 40.33619 7.012738 68.434623
4752 5 39.493379 6.507272 68.676906
4753 2 3.897096 3.378803 73.11309
4754 2 5.376274 3.797584 72.614542
4755 5 4.62218 4.034227 73.246894
4756 2 10.857544 24.136683 66.569447
4757 2 11.372278 22.607145 66.483073
4758 5 11.652473 23.561399 66.67127
4759 2 44.909599 27.575747 77.021631
4760 2 45.5826 27.711723 78.484668
4761 5 45.76069 27.490425 77.513154
4762 2 15.760909 33.22947 72.049215
4763 2 15.347216 33.249592 73.611377
4764 5 15.508915 32.6535 72.809471
4765 2 9.70465 10.602018 67.592986
4766 2 8.12684 10.83178 67.329128
4767 5 8.85023 10.132754 67.441365
4768 2 15.130211 17.988671 65.26188
4769 2 14.94736 17.799127 63.667347
4770 5 14.628147 18.314742 64.477762
4771 2 47.637567 8.379632 65.766455
4772 2 46.206504 8.032705 66.432484
4773 5 46.783208 8.776296 66.059642
4774 2 7.311372 17.892289 68.855609
4775 2 8.064034 19.035688 69.714697
4776 5 7.729214 18.78378 68.793304
4777 2 7.009467 31.571345 79.020036
4778 2 7.483493 30.518786 80.151103
4779 5 6.72514 30.777988 79.532845
4780 2 56.600141 32.294594 77.096286
4781 2 58.144099 32.127681 77.543758
4782 5 57.5049 32.091098 76.759786
4783 2 59.268291 18.597476 64.82091
4784 2 60.056777 17.918938 66.057749
4785 5 59.883638 18.787757 65.568153
4786 2 61.772323 15.826305 69.078643
4787 2 61.850107 16.58908 70.501323
4788 5 61.304056 16.474095 69.656851
4789 2 47.454873 10.373225 64.703006
4790 2 47.833526 11.210325 66.032586
4791 5 48.191586 10.844695 65.159296
4792 2 11.784332 8.328429 78.066552
4793 2 11.940482 8.914907 76.568702
4794 5 12.381387 8.847632 77.477329
4795 2 58.652616 34.564735 66.059579
4796 2 58.923931 35.413457 67.407895
4797 5 58.591087 34.529714 67.04356
4798 2 53.142498 10.175247 64.299399
4799 2 53.204469 9.086242 63.106871
4800 5 52.961872 9.230805 64.078866
4801 2 6.401937 3.933678 78.734692
4802 2 6.130502 3.031819 77.421349
4803 5 5.971348 3.936215 77.847101
4804 2 9.400194 22.301502 76.766971
4805 2 7.785857 22.275963 76.695155
4806 5 8.58828 22.064301 77.274674
4807 2 28.440686 5.579048 79.065309
4808 2 29.50736 5.024965 80.14563
4809 5 28.547315 4.96557 79.830493
4810 2 17.817404 23.659292 66.632117
4811 2 17.492266 23.441535 65.064073
4812 5 17.146158 23.833878 65.930562
4813 2 22.907575 31.010154 67.723294
4814 2 22.217696 31.766811 68.973668
4815 5 23.095491 31.436905 68.592663
4816 2 61.452739 31.670802 76.25931
4817 2 62.162263 30.517304 77.141305
4818 5 61.380108 30.725985 76.533675
4819 2 2.744398 16.700285 67.978367
4820 2 2.211672 15.33262 67.301913
4821 5 2.560438 15.747613 68.156706
4822 2 7.058968 9.475643 77.766794
4823 2 5.701298 10.294509 77.453612
4824 5 6.695379 10.246038 77.269276
4825 2 56.257841 3.472176 75.535213
4826 2 56.83598 4.897761 75.039876
4827 5 56.073382 4.44124 75.52419
4828 2 36.79766 4.295411 79.988892
4829 2 37.763948 5.57843 80.167896
4830 5 37.002412 5.189691 79.626166
4831 2 14.14604 1.142344 76.932955
4832 2 13.908545 1.365116 78.515947
4833 5 14.554004 1.010693 77.821473
4834 2 57.119336 6.517498 68.941381
4835 2 57.213297 6.358417 67.33584
4836 5 56.921155 6.970114 68.08751
4837 2 33.714975 3.401825 62.968663
4838 2 34.501907 4.012696 64.241247
4839 5 33.87013 3.283306 63.935675
4840 2 8.534104 26.004335 68.827393
4841 2 9.807093 26.893272 69.275931
4842 5 9.452355 26.258641 68.571707
4843 2 59.264769 21.322441 63.602131
4844 2 59.880561 21.397211 65.09448
4845 5 60.031021 21.65467 64.127214
4846 2 48.478391 20.438589 66.843754
4847 2 50.078206 20.660656 66.900099
4848 5 49.220061 20.959642 66.454317
4849 2 8.216017 17.916229 66.834003
4850 2 8.098373 16.416614 67.424942
4851 5 7.964659 16.990854 66.602205
4852 2 22.67706 23.069969 62.863152
4853 2 23.911332 23.699143 63.695384
4854 5 23.174268 23.904958 63.032885
4855 2 48.487464 19.420917 76.600766
4856 2 48.157805 19.14019 75.043713
4857 5 48.135079 18.744484 75.975071
4858 2 39.836465 28.106441 79.497938
4859 2 38.363088 27.890914 80.126112
4860 5 39.187646 28.477761 80.141666
4861 2 23.093497 18.423172 70.673175
4862 2 23.467318 19.286409 69.35903
4863 5 22.92706 19.280826 70.214961
4864 2 5.917947 35.066407 66.267167
4865 2 7.275536 34.673127 65.483471
4866 5 6.605283 35.413051 65.650207
4867 2 32.675769 26.29597 66.392539
4868 2 32.114131 26.642306 67.867839
4869 5 32.246093 27.002125 66.931013
4870 2 58.132398 25.729838 63.74033
4871 2 59.737669 25.855826 63.878624
4872 5 58.852498 26.093431 64.308209
4873 2 47.218065 4.614665 63.891081
4874 2 48.772947 4.614109 63.450355
4875 5 48.135294 4.46555 64.222272
4876 2 9.19265 10.683109 70.510297
4877 2 8.764263 9.3087 69.775871
4878 5 8.953203 10.293252 69.636278
4879 2 36.372584 8.034491 67.532249
4880 2 37.464701 6.911495 67.92981
4881 5 37.189786 7.578576 67.219914
4882 2 17.321036 7.650993 73.891837
4883 2 18.740426 6.929933 74.169865
4884 5 17.809506 7.085201 74.53566
4885 2 26.803231 23.718073 67.386952
4886 2 26.005364 22.56555 66.582591
4887 5 26.241693 23.549702 66.593504
4888 2 47.610532 31.268389 72.283538
4889 2 46.777131 30.757805 70.996431
4890 5 47.690663 30.776966 71.431885
4891 2 11.25273 30.865533 71.533958
4892 2 11.804079 31.316778 70.083341
4893 5 11.067653 31.453958 70.764066
4894 2 1.003129 31.92717 75.325498
4895 2 1.934486 32.347032 76.57777
4896 5 1.153949 32.631544 75.999547
4897 2 2.949893 28.685099 73.853932
4898 2 4.363324 28.235983 74.496117
4899 5 3.66412 28.967495 74.473095
4900 2 20.555235 20.956641 80.207263
4901 2 20.957531 22.499737 79.94476
4902 5 21.219119 21.538297 79.766623
4903 2 11.001053 29.446865 78.538326
4904 2 11.01732 29.715954 80.13182
4905 5 10.769338 30.108514 79.232415
4906 2 9.773123 16.699747 64.88614
4907 2 10.070885 16.366971 66.439361
4908 5 10.491273 16.6394 65.559825
4909 2 59.300648 18.306479 74.283533
4910 2 60.837747 18.51749 74.735969
4911 5 60.087274 17.842884 74.657072
4912 2 31.699647 30.694246 79.748874
4913 2 32.024158 29.972323 78.339826
4914 5 31.672096 29.827917 79.277764
4915 2 39.413845 18.804249 73.033347
4916 2 38.78536 17.640905 73.962611
4917 5 39.627945 17.964277 73.504344
4918 2 27.794368 26.050337 75.578108
4919 2 28.444883 26.488511 74.165051
4920 5 28.650936 26.219152 75.118736
4921 2 41.751575 34.294137 77.323016
4922 2 42.872193 33.377386 78.041124
4923 5 42.159738 33.39601 77.322382
4924 2 57.992002 24.959513 68.068824
4925 2 57.84975 26.417566 68.751275
4926 5 58.108815 25.452901 68.915082
4927 2 5.882517 23.931597 73.961863
4928 2 6.232799 23.680616 75.519492
4929 5 6.379439 23.341797 74.577035
4930 2 56.323617 13.202353 74.802676
4931 2 54.778462 13.663241 74.693248
4932 5 55.437363 13.109528 75.225958
4933 2 51.279314 1.919532 73.386431
4934 2 51.052726 1.259773 74.844262
4935 5 50.968357 1.104745 73.847579
4936 2 15.327415 31.287347 66.500716
4937 2 16.068285 32.723661 66.503862
4938 5 16.210926 31.72288 66.555032
4939 2 7.426141 25.669331 72.115165
4940 2 8.38749 26.775608 72.796233
4941 5 8.348424 26.019384 72.124574
4942 2 13.191808 21.495824 78.828539
4943 2 12.599213 22.363364 80.056588
4944 5 12.379909 21.947558 79.160184
4945 2 46.668599 25.756391 74.152454
4946 2 46.399617 24.316434 73.469762
4947 5 47.008133 24.832049 74.092961
4948 2 18.097455 7.095904 78.335644
4949 2 17.314473 5.776197 77.828488
4950 5 18.142792 6.343407 77.699308
4951 2 29.333932 4.179735 70.292745
4952 2 30.388167 3.381714 69.363419
4953 5 29.510967 3.886719 69.367525
4954 2 55.949198 25.044099 65.589471
4955 2 56.143409 24.19933 66.953488
4956 5 56.504338 24.967039 66.401328
4957 2 7.772291 22.584125 65.273438
4958 2 9.242056 22.672398 65.939692
4959 5 8.512495 22.040797 65.634163
4960 2 26.970348 28.877649 75.552875
4961 2 27.558801 28.666389 74.062577
4962 5 27.284206 28.194011 74.914624
4963 2 58.31321 12.617781 75.535634
4964 2 59.493732 13.05067 74.520317
4965 5 59.230209 12.979293 75.49499
4966 2 60.114212 6.764393 70.763768
4967 2 60.332383 6.642256 72.360446
4968 5 60.754477 6.945895 71.492018
4969 2 22.214815 7.915649 74.744946
4970 2 22.222973 8.019976 76.357691
4971 5 22.80609 7.993947 75.530754
4972 2 7.02544 15.818297 69.519517
4973 2 8.317372 15.001331 70.044277
4974 5 7.984591 15.905251 69.73329
4975 2 49.493366 12.622232 73.091845
4976 2 49.727 12.035638 74.579534
4977 5 50.166485 12.211871 73.684927
4978 2 11.36061 13.861294 70.794027
4979 2 12.398037 13.991062 72.026423
4980 5 11.985512 14.479573 71.241753
4981 2 38.797916 15.962298 72.26672
4982 2 39.703412 15.677209 73.574656
4983 5 39.725357 15.959895 72.602991
4984 2 37.593702 7.768438 80.074706
4985 2 37.206425 7.330291 78.568074
4986 5 36.833943 7.624106 79.462198
4987 2 54.440823 28.718075 71.569321
4988 2 53.338547 29.740874 72.161574
4989 5 53.473669 28.839536 71.72128
4990 2 55.333665 34.996709 66.701518
4991 2 54.397242 35.34885 65.432265
4992 5 55.335468 35.412201 65.806759
4993 2 34.382442 17.227894 66.873047
4994 2 33.949697 18.525849 66.01285
4995 5 33.610727 17.784892 66.613356
4996 2 54.38603 32.645386 73.799595
4997 2 55.688576 33.597632 73.707414
4998 5 54.994536 33.096344 73.167465
4999 2 55.586861 15.100172 63.170765
5000 2 56.150631 13.834723 64.00305
5001 5 55.855578 14.154466 63.089138
5002 2 7.18841 30.08995 68.015875
5003 2 6.171855 30.126524 69.27173
5004 5 6.239692 30.197003 68.264279
5005 2 11.420491 33.688178 75.357571
5006 2 10.066183 33.378951 74.531663
5007 5 10.438387 33.638405 75.43647
5008 2 26.330052 1.006804 72.942202
5009 2 26.715484 2.565837 73.123187
5010 5 27.053377 1.616781 73.221415
5011 2 45.290016 5.713625 68.243827
5012 2 46.021994 5.378611 69.645209
5013 5 45.143598 5.337394 69.143962
5014 2 57.60198 3.2494 70.547183
5015 2 56.960518 3.612605 71.985413
5016 5 56.80816 3.114956 71.117277
5017 2 22.679025 15.129855 72.020332
5018 2 24.198483 15.115623 72.570733
5019 5 23.60458 14.882537 71.784935
5020 2 54.564262 9.967484 70.365705
5021 2 55.332581 8.552146 70.230054
5022 5 55.290119 9.502949 69.885527
5023 2 6.512104 28.129913 74.966936
5024 2 5.763005 27.398376 76.198033
5025 5 6.665808 27.639504 75.809019
5026 2 24.724338 14.31241 79.266913
5027 2 25.082758 13.003386 80.144346
5028 5 25.423933 13.636824 79.432389
5029 2 44.433606 10.45943 75.58834
5030 2 44.986007 11.841871 74.959369
5031 5 45.082797 11.189203 75.726951
5032 2 44.566784 22.132858 78.025296
5033 2 43.713308 22.152858 76.653044
5034 5 43.719058 22.438733 77.624007
5035 2 15.724126 3.685407 64.069072
5036 2 17.15089 3.466475 64.795922
5037 5 16.435394 3.022122 64.234545
5038 2 3.141637 6.043131 73.294731
5039 2 2.710538 6.639699 71.855928
5040 5 3.125566 6.866084 72.75093
5041 2 4.877118 16.668098 70.702704
5042 2 5.071277 15.705163 71.986041
5043 5 5.554343 16.203429 71.24922
5044 2 42.520019 32.73903 65.513217
5045 2 42.229631 33.565375 64.155011
5046 5 42.549699 33.639955 65.112362
5047 2 58.827593 4.549661 75.911224
5048 2 58.364139 3.001784 75.945617
5049 5 58.91547 3.685812 75.442957
5050 2 24.645216 20.957546 78.261254
5051 2 23.378559 21.619762 77.506968
5052 5 23.899719 21.593698 78.374286
5053 2 48.109879 16.791281 64.911699
5054 2 47.965321 16.106013 63.455194
5055 5 48.590077 16.614234 64.068315
5056 2 3.491137 17.518051 75.815897
5057 2 2.961859 17.552172 77.342526
5058 5 2.97788 17.009978 76.487953
5059 2 21.277581 5.629483 79.822699
5060 2 19.740304 6.092255 80.008484
5061 5 20.3911 5.326976 80.132332
5062 2 6.425563 21.830826 72.456727
5063 2 5.358007 20.89188 73.225231
5064 5 6.267234 20.912647 72.780931
5065 2 38.516058 25.896352 68.244358
5066 2 38.0264 26.049768 66.711846
5067 5 38.244117 26.554591 67.561716
5068 2 25.891898 32.70753 64.041579
5069 2 25.192579 32.533392 65.488135
5070 5 25.797522 32.092291 64.806958
5071 2 27.425992 10.796512 67.623835
5072 2 26.951423 11.834107 66.47925
5073 5 27.522039 11.72626 67.308282
5074 2 45.548856 6.876281 78.173793
5075 2 46.806837 6.005107 78.693827
5076 5 46.533933 6.823642 78.164629
5077 2 20.527627 15.891362 75.371799
5078 2 21.481198 14.842217 76.147617
5079 5 20.878893 15.647773 76.260904
5080 2 44.778967 3.367778 80.145995
5081 2 45.713588 4.684919 80.086658
5082 5 45.656385 3.70365 79.845065
5083 2 44.794889 28.932033 70.081752
5084 2 44.660045 30.141949 69.018824
5085 5 44.994559 29.19602 69.152411
5086 2 46.301064 24.83822 68.439762
5087 2 46.458854 26.333177 69.033142
5088 5 46.355544 25.789835 68.185419
5089 2 9.138363 23.819033 75.189395
5090 2 9.141246 22.452066 74.327254
5091 5 8.554132 23.120509 74.809962
5092 2 23.705987 11.128221 74.809817
5093 2 23.283851 10.27115 73.506312
5094 5 23.40966 10.23628 74.510046
5095 2 9.652772 26.02364 63.0158
5096 2 9.195 26.276721 64.544946
5097 5 9.724952 25.668681 63.933419
5098 2 27.642515 34.450841 69.037349
5099 2 27.937086 34.545134 67.451085
5100 5 27.620275 33.936919 68.195553
5101 2 28.133433 20.314569 77.464155
5102 2 29.615258 20.332919 78.108945
5103 5 28.93185 19.759562 77.630675
5104 2 25.043737 31.475078 75.948673
5105 2 26.51402 31.233495 75.322734
5106 5 25.95793 31.843667 75.90838
5107 2 41.631986 21.828989 77.293245
5108 2 40.049817 21.717978 76.982904
5109 5 40.916218 21.198059 77.042578
5110 2 35.674832 18.262512 75.860608
5111 2 36.479241 18.240599 74.459059
5112 5 36.454387 18.640353 75.388632
5113 2 37.162339 16.318987 66.920707
5114 2 37.205997 15.370862 68.228778
5115 5 36.598863 15.798282 67.540862
5116 2 49.228189 23.323871 77.143852
5117 2 48.271352 23.017923 75.877852
5118 5 48.294121 23.363545 76.828933
5119 2 25.948918 17.461759 80.150004
5120 2 26.031041 16.539848 78.825152
5121 5 25.569471 16.660174 79.717902
5122 2 29.993645 28.160429 68.483343
5123 2 30.570761 29.572287 69.017655
5124 5 30.021948 29.127904 68.292497
5125 2 19.606422 19.294725 76.128183
5126 2 19.021336 20.416745 77.13349
5127 5 19.121611 20.153263 76.161353
5128 2 31.321848 26.601304 72.975946
5129 2 32.15215 26.030039 71.712558
5130 5 32.182808 26.199779 72.709942
5131 2 4.285754 11.446251 71.712836
5132 2 4.447682 12.180775 70.2824
5133 5 4.301931 12.329146 71.27299
5134 2 36.568265 16.061329 74.526154
5135 2 35.07613 16.28512 75.105244
5136 5 35.681738 15.638042 74.61631
5137 2 56.384849 1.897111 77.906646
5138 2 57.330446 0.99907 76.952044
5139 5 57.323082 1.651794 77.725623
5140 2 42.931032 34.556655 72.457622
5141 2 42.884254 34.222371 74.038116
5142 5 43.46773 34.213861 73.211067
5143 2 9.723401 33.039718 70.041745
5144 2 9.107244 33.448217 71.478886
5145 5 8.969378 32.874925 70.656174
5146 2 16.157627 24.021089 69.410677
5147 2 14.896802 24.690303 68.652806
5148 5 15.777288 24.881632 69.113963
5149 2 41.142121 3.032465 66.314978
5150 2 40.89683 4.151035 65.17457
5151 5 41.591299 3.72578 65.775734
5152 2 54.706679 15.675736 69.535301
5153 2 53.170201 15.264587 69.248792
5154 5 53.805149 16.042733 69.374717
5155 2 32.531217 28.559856 71.439534
5156 2 31.703686 28.765813 72.812367
5157 5 32.530175 28.348662 72.403187
5158 2 50.921648 23.916874 72.361258
5159 2 50.884797 25.51086 72.09716
5160 5 51.432629 24.668247 71.977112
5161 2 14.417251 16.432414 80.162819
5162 2 14.823352 17.018196 78.712358
5163 5 14.31807 17.212823 79.567541
5164 2 43.08747 23.539757 72.525017
5165 2 43.07334 23.978067 70.969517
5166 5 43.331087 23.243276 71.616182
5167 2 58.05821 28.416709 80.144341
5168 2 58.699287 29.029076 78.793074
5169 5 57.945209 28.465908 79.165545
5170 2 59.227657 15.299559 67.376093
5171 2 58.877228 15.298094 68.953779
5172 5 59.42377 15.750025 68.231576
5173 2 9.614681 17.666493 68.950489
5174 2 11.192598 17.851119 69.247115
5175 5 10.488987 17.820164 68.520135
5176 2 46.198941 7.753379 64.200732
5177 2 47.475799 7.028542 63.525349
5178 5 46.817252 7.791634 63.43297
5179 2 48.968927 7.124885 75.442457
5180 2 50.115682 7.821849 76.343063
5181 5 49.912895 7.411503 75.440278
5182 2 1.084177 4.58663 74.173541
5183 2 1.760171 4.222053 72.751566
5184 5 1.917608 4.27131 73.750223
5185 2 47.846255 9.97292 69.816957
5186 2 47.596166 9.359447 71.291068
5187 5 48.13533 9.264507 70.439707
5188 2 38.356901 3.752023 76.649346
5189 2 39.880082 4.201714 76.948668
5190 5 39.280987 3.415964 76.729099
5191 2 19.42081 4.119879 74.15194
5192 2 19.086958 4.434232 72.602224
5193 5 19.640233 4.719892 73.400229
5194 2 30.421048 10.436064 72.405042
5195 2 31.028701 9.190295 73.236133
5196 5 31.262251 10.032514 72.725595
5197 2 55.260824 5.538135 68.288726
5198 2 54.420674 4.759186 67.148866
5199 5 54.454043 5.591765 67.723518
5200 2 40.967722 7.23586 70.529927
5201 2 40.450266 8.520376 71.363086
5202 5 40.448431 8.071379 70.455933
5203 2 3.213001 12.295694 75.890925
5204 2 3.051562 10.739921 75.484226
5205 5 3.025306 11.397518 76.253254
5206 2 23.842231 33.964965 73.772877
5207 2 24.056327 35.41736 73.097149
5208 5 24.271553 34.431562 73.017099
5209 2 48.99924 12.118837 63.561541
5210 2 48.930978 12.86765 62.130977
5211 5 48.838842 11.97483 62.598855
5212 2 39.758916 11.917426 72.376272
5213 2 40.565928 13.228451 72.868047
5214 5 40.656307 12.324737 72.421213
5215 2 61.379198 11.129594 69.981295
5216 2 62.122532 9.699881 70.104874
5217 5 61.514019 10.264844 69.526034
5218 2 9.914727 1.317218 78.094203
5219 2 9.443527 0.999105 76.581368
5220 5 9.946846 1.653283 77.167241
5221 2 47.6493 29.185857 75.849091
5222 2 48.03914 30.43725 74.90361
5223 5 48.27436 29.483107 75.146116
5224 2 33.619032 13.418668 64.114568
5225 2 34.622328 12.195082 64.443403
5226 5 34.391008 13.154313 64.669004
5227 2 17.902656 11.599251 71.498292
5228 2 17.763686 10.571331 70.258953
5229 5 17.270082 11.005586 71.028566
5230 2 17.463181 3.078721 79.760552
5231 2 18.051546 4.536536 80.135383
5232 5 17.215441 3.966519 80.11222
5233 2 37.493043 22.626487 77.632691
5234 2 38.094697 22.310953 76.166285
5235 5 37.830598 21.902406 77.053904
5236 2 2.301496 33.387338 67.192341
5237 2 1.671795 34.109517 65.890869
5238 5 1.462503 33.736189 66.808121
5239 2 5.027927 35.412039 78.666078
5240 2 5.158435 34.294078 79.825831
5241 5 4.516273 34.910973 79.344587
5242 2 34.517984 30.653486 74.585933
5243 2 33.442534 31.536654 75.40771
5244 5 34.035483 30.717131 75.444055
5245 2 17.932509 18.467478 77.284531
5246 2 16.890169 17.232838 77.251556
5247 5 17.115968 18.131612 76.844435
5248 2 32.355967 9.242453 70.989186
5249 2 33.671388 8.918675 70.107863
5250 5 32.903556 9.565822 70.234991
5251 2 42.859789 30.247833 71.234382
5252 2 43.484681 30.481437 72.706399
5253 5 42.673275 30.152636 72.198426
5254 2 26.867746 20.812242 80.132649
5255 2 28.425042 20.417925 79.955901
5256 5 27.642502 20.896291 79.527737
5257 2 57.587656 16.592537 78.182608
5258 2 58.396419 16.363585 79.562963
5259 5 58.013484 17.06212 78.938513
5260 2 27.033815 13.744218 68.844622
5261 2 26.943025 13.957143 70.444096
5262 5 26.4067 13.91535 69.586695
5263 2 2.305035 19.4978 76.19232
5264 2 2.418784 20.615441 77.354145
5265 5 2.35139 20.469754 76.354765
5266 2 18.762001 14.635546 74.990804
5267 2 19.158759 14.11337 76.4679
5268 5 18.670942 14.835202 75.952613
5269 2 21.974602 10.725911 76.105976
5270 2 22.679294 11.384937 77.402505
5271 5 22.619816 10.551282 76.831534
5272 2 52.001921 34.661096 64.971865
5273 2 51.163739 35.412689 66.131371
5274 5 51.310494 35.34629 65.132081
5275 2 4.488329 7.457843 76.710883
5276 2 4.780316 8.375527 78.008764
5277 5 5.206439 7.795768 77.296848
5278 2 18.935706 11.32388 74.456624
5279 2 17.658178 11.915061 73.662697
5280 5 18.446116 11.28269 73.60115
5281 2 30.205685 25.743373 80.0188
5282 2 28.646079 26.158438 79.933679
5283 5 29.577337 26.493114 80.146462
5284 2 58.42644 32.379332 74.055753
5285 2 59.987479 32.350536 74.473154
5286 5 59.0407 32.40217 74.827371
5287 2 15.583057 8.623989 69.86499
5288 2 14.322208 9.564473 70.235995
5289 5 14.849567 9.155907 69.47475
5290 2 17.631537 12.987064 65.17145
5291 2 16.856469 12.762709 66.571747
5292 5 17.540653 12.371245 65.936786
5293 2 58.457145 17.633264 67.540329
5294 2 57.599423 17.496116 66.177465
5295 5 58.010907 18.151838 66.829567
5296 2 48.149409 13.884369 68.666565
5297 2 47.09763 12.858497 69.339799
5298 5 47.375103 13.304079 68.474355
5299 2 20.541564 10.401601 66.097932
5300 2 21.466335 11.483487 65.332283
5301 5 21.475771 10.633526 65.881832
5302 2 21.470689 3.506907 73.652945
5303 2 21.045319 1.962578 73.438459
5304 5 20.927698 2.905612 73.090063
5305 2 24.537766 28.567993 77.929297
5306 2 24.214616 28.754515 76.356821
5307 5 23.965776 28.243093 77.19411
5308 2 18.895897 1.560883 70.508997
5309 2 19.658824 2.74019 71.308418
5310 5 19.343342 2.432944 70.397046
5311 2 36.806304 27.941411 72.738333
5312 2 36.324866 27.578973 74.237917
5313 5 37.035504 28.049343 73.691773
5314 2 47.540017 2.147702 74.940128
5315 2 46.143518 1.546923 74.39172
5316 5 46.907779 2.177027 74.183393
5317 2 23.896417 21.569274 64.842282
5318 2 23.830051 21.438831 66.451777
5319 5 23.360203 21.205458 65.586152
5320 2 7.724261 1.500491 78.025727
5321 2 8.285915 1.665509 79.532116
5322 5 7.980709 2.166225 78.707096
5323 2 7.43316 21.015564 68.4924
5324 2 8.15552 22.237414 69.265172
5325 5 8.060297 21.767773 68.373602
5326 2 34.468416 19.646705 72.570011
5327 2 34.216785 19.345117 74.137691
5328 5 34.915645 19.374261 73.406068
5329 2 34.803741 4.06787 70.196369
5330 2 34.36708 4.444356 68.686574
5331 5 34.614195 4.824 69.591743
5332 2 56.157527 5.076602 70.292112
5333 2 55.397655 5.267908 71.70558
5334 5 55.387865 4.7671 70.826021
5335 2 10.12444 19.280247 70.626591
5336 2 9.514348 19.058521 72.106632
5337 5 9.639577 18.63626 71.195292
5338 2 21.337685 19.490669 68.708465
5339 2 20.687003 19.364977 70.182476
5340 5 20.943637 18.851798 69.348621
5341 2 16.494954 5.363299 70.518689
5342 2 17.481302 4.517625 69.55752
5343 5 16.845333 4.458039 70.342707
5344 2 18.941349 16.954931 69.552643
5345 2 18.52043 18.476496 69.898421
5346 5 18.973452 17.881725 69.216112
5347 2 0.998264 19.699594 65.134925
5348 2 1.021314 20.379219 63.668816
5349 5 1.532532 20.273209 64.535964
5350 2 29.739953 3.28514 67.263156
5351 2 30.792552 3.486911 66.05352
5352 5 30.097155 3.948412 66.626204
5353 2 13.815869 21.346926 68.779296
5354 2 15.298251 21.220734 69.410577
5355 5 14.733477 21.037569 68.590816
5356 2 45.499741 19.941699 68.366089
5357 2 46.175396 19.395884 69.72898
5358 5 46.351924 19.883379 68.859662
5359 2 52.592463 4.190034 72.412836
5360 2 51.813235 4.039403 73.820675
5361 5 52.688422 3.870227 73.341139
5362 2 35.589754 15.242797 62.842155
5363 2 36.94804 15.925107 63.391162
5364 5 35.943923 15.877258 63.50943
5365 2 4.338452 7.752697 68.71029
5366 2 3.330885 8.429165 69.777574
5367 5 3.905884 8.602605 68.962821
5368 2 49.17159 32.214927 78.424945
5369 2 49.303023 31.059816 77.302297
5370 5 48.675645 31.496125 77.966043
5371 2 27.199282 32.7112 70.523929
5372 2 28.75271 33.157013 70.521442
5373 5 27.939276 33.007773 71.105034
5374 2 52.121469 14.476065 77.757591
5375 2 52.142613 13.87601 76.25713
5376 5 51.623626 13.905066 77.125655
5377 2 38.719995 3.229992 80.02586
5378 2 39.802604 3.07688 78.835731
5379 5 39.0139 3.617569 79.167586
5380 2 29.913366 12.442969 70.121552
5381 2 29.152812 12.090372 68.73984
5382 5 30.052341 12.295699 69.156033
5383 2 14.583485 3.918578 74.083893
5384 2 14.206138 5.36002 73.457994
5385 5 13.828513 4.481719 73.79043
5386 2 23.140953 2.77268 78.569908
5387 2 21.788477 3.655831 78.622333
5388 5 22.480604 3.2444 78.008971
5389 2 8.960386 1.788118 70.881859
5390 2 10.538119 1.853525 71.225917
5391 5 9.624191 1.617638 71.591458
5392 2 28.289004 3.168574 76.065174
5393 2 28.566337 2.581526 77.545159
5394 5 28.95495 2.694437 76.617389
5395 2 47.283598 29.794907 77.927862
5396 2 48.341777 28.689226 78.447114
5397 5 47.440453 28.82413 78.006723
5398 2 31.036168 10.252235 66.907642
5399 2 29.423968 10.156434 66.96705
5400 5 30.22839 10.69827 67.25661
5401 2 44.621481 3.425215 70.119286
5402 2 44.245054 2.445029 68.890696
5403 5 44.890467 3.156886 69.208859
5404 2 28.300977 14.185713 79.622345
5405 2 27.15246 15.191305 80.152993
5406 5 27.440867 14.222306 80.104114
5407 2 44.004648 25.51301 78.184138
5408 2 42.696026 24.564641 78.184414
5409 5 43.595347 24.727663 77.749474
5410 2 58.769685 30.147131 76.896965
5411 2 57.748841 30.203689 75.645336
5412 5 57.852236 29.922577 76.612193
5413 2 29.61339 1.006541 64.595988
5414 2 29.028285 0.998053 63.08951
5415 5 29.149616 1.559186 63.923138
5416 2 18.308884 20.52311 65.518015
5417 2 17.59091 21.471007 66.612503
5418 5 17.56458 21.156869 65.650655
5419 2 62.143146 32.14005 78.626771
5420 2 61.654592 33.345954 79.58542
5421 5 62.151902 33.120793 78.733063
5422 2 38.616675 27.704865 70.052959
5423 2 39.139427 26.364495 70.789188
5424 5 39.417248 27.152488 70.217866
5425 2 30.691049 24.907978 74.230701
5426 2 31.082701 25.227525 75.765756
5427 5 30.801456 25.638434 74.884517
5428 2 38.076361 19.263344 77.749474
5429 2 38.261769 18.940422 79.322128
5430 5 38.338199 19.659708 78.614094
5431 2 55.556064 10.684658 75.62379
5432 2 57.045732 10.670909 74.997216
5433 5 56.418756 11.163183 75.62099
5434 2 10.876051 3.427134 79.409428
5435 2 12.356803 2.809913 79.213709
5436 5 11.451179 2.932635 78.778611
5437 2 59.856142 20.357326 75.682184
5438 2 60.791884 21.417251 76.465025
5439 5 60.133323 21.303841 75.704786
5440 2 13.460498 21.722584 65.913
5441 2 14.714656 22.371183 65.126678
5442 5 13.705199 22.358942 65.199978
5443 2 48.953014 25.239071 73.149351
5444 2 49.126288 24.749 74.679613
5445 5 49.615789 24.933354 73.813051
5446 2 58.615892 33.494547 71.261837
5447 2 58.768542 33.26688 69.669116
5448 5 59.275879 33.378355 70.537857
5449 2 17.148679 20.957665 75.050018
5450 2 16.428898 20.60053 76.452254
5451 5 16.765045 21.355145 75.867371
5452 2 27.705648 24.481672 70.128345
5453 2 28.113757 25.135199 68.707696
5454 5 27.349204 24.751899 69.249052
5455 2 43.901076 8.887274 66.428071
5456 2 44.823076 10.2101 66.318779
5457 5 44.381045 9.46797 65.791162
5458 2 35.548145 31.621109 70.14901
5459 2 35.594315 30.639883 68.865671
5460 5 34.996247 31.031899 69.582026
5461 2 2.444808 1.211121 79.183026
5462 2 3.243348 2.423852 79.892612
5463 5 2.326034 2.037859 79.708028
5464 2 22.498314 26.605893 66.421756
5465 2 21.980046 26.555653 67.951714
5466 5 22.524361 26.070285 67.249812
5467 2 60.679357 10.686966 64.139898
5468 2 59.223129 10.137543 63.704663
5469 5 60.160156 10.336599 63.377728
5470 2 54.209222 17.108883 64.330047
5471 2 54.305566 17.537263 65.885394
5472 5 53.669573 17.326522 65.126692
5473 2 29.761775 33.717561 68.647196
5474 2 30.227845 34.966258 69.561214
5475 5 30.385754 34.48063 68.687282
5476 2 56.774668 11.71115 80.130422
5477 2 58.09042 11.504662 79.214967
5478 5 57.234984 11.070577 79.537964
5479 2 9.124275 31.396699 74.333617
5480 2 9.596525 31.590231 72.800182
5481 5 9.902619 31.335033 73.730616
5482 2 49.703862 27.116241 74.047841
5483 2 50.192606 28.567791 74.563618
5484 5 50.07267 27.597584 74.825993
5485 2 51.342137 30.827442 79.284855
5486 2 50.038052 30.401903 80.139357
5487 5 50.394914 30.563278 79.206011
5488 2 31.343932 18.855028 68.393856
5489 2 31.472809 18.203865 66.920332
5490 5 30.963608 18.16997 67.794456
5491 2 25.60961 9.472631 80.147471
5492 2 26.102933 8.878802 78.727648
5493 5 26.382344 9.075067 79.680505
5494 2 13.676529 32.017812 80.149759
5495 2 14.330304 32.187781 78.681568
5496 5 13.863641 32.673685 79.436982
5497 2 54.560424 35.207756 72.722581
5498 2 53.143587 34.721251 72.116131
5499 5 53.595468 35.411891 72.70209
5500 2 8.475985 19.342053 79.543272
5501 2 8.240936 20.813144 80.1698
5502 5 7.841754 19.88895 80.064699
5503 2 50.875818 14.55772 69.171947
5504 2 51.26645 13.049235 68.743259
5505 5 51.51207 13.824215 69.346255
5506 2 40.171118 26.639373 75.534774
5507 2 40.785251 27.993742 74.901986
5508 5 40.719805 27.432646 75.741876
5509 2 1.72428 34.200297 69.153476
5510 2 2.161444 33.886563 70.677404
5511 5 1.987359 34.622978 70.005158
5512 2 13.903501 10.281356 67.842294
5513 2 12.870518 9.236277 68.515088
5514 5 13.425973 9.431342 67.691713
5515 2 20.972333 16.142598 68.322434
5516 2 20.812437 16.473825 66.748707
5517 5 21.478785 16.332279 67.497353
5518 2 41.502952 7.021005 72.889639
5519 2 41.982148 5.479236 72.961878
5520 5 41.574468 6.188267 72.365555
5521 2 36.404534 30.162955 72.818257
5522 2 35.953665 29.795194 71.310489
5523 5 35.627094 30.117679 72.212643
5524 2 37.122362 12.273709 69.446761
5525 2 37.880091 11.55905 68.211041
5526 5 37.722454 12.441106 68.681844
5527 2 17.217546 22.393131 77.641739
5528 2 17.698686 23.926667 77.472419
5529 5 17.196515 23.28183 78.069527
5530 2 2.922602 24.852777 65.756644
5531 2 3.152532 24.585834 64.179377
5532 5 2.823281 24.177007 65.044814
5533 2 15.347833 24.285986 77.767026
5534 2 16.254503 25.547053 77.32031
5535 5 15.921167 25.011092 78.111613
5536 2 62.161276 15.552415 78.855819
5537 2 61.434317 14.906242 80.146512
5538 5 61.832815 14.70441 79.238222
5539 2 52.242539 20.276844 75.218851
5540 2 52.3677 21.032647 76.641874
5541 5 52.72564 20.271364 76.078976
5542 2 20.567215 6.573408 76.339477
5543 2 21.089448 5.704704 77.598255
5544 5 20.448843 5.717016 76.814673
5545 2 55.130926 7.532628 66.942579
5546 2 55.547495 7.55674 65.381238
5547 5 54.773326 7.633817 66.028733
5548 2 50.067818 6.978312 66.438192
5549 2 49.838502 5.396134 66.674877
5550 5 49.979635 6.286232 67.135673
5551 2 41.994153 18.469654 65.46133
5552 2 43.374053 17.818125 65.993571
5553 5 42.73885 17.874474 65.207524
5554 2 54.627383 26.356702 66.761315
5555 2 54.065749 26.001016 68.23439
5556 5 54.82467 25.846983 67.582592
5557 2 45.346249 10.809815 64.247558
5558 2 45.887508 10.600425 62.739218
5559 5 45.458881 10.13993 63.532156
5560 2 51.307 27.832214 64.920606
5561 2 50.853579 27.970427 66.465664
5562 5 50.521806 27.926148 65.510419
5563 2 55.89006 11.608839 73.349913
5564 2 56.62169 10.735309 72.203807
5565 5 55.73043 10.950801 72.632462
5566 2 40.022112 18.316823 78.157891
5567 2 41.137022 17.311956 78.757152
5568 5 40.949002 18.270677 78.492521
5569 2 54.7381 19.682213 66.100484
5570 2 55.903552 18.774751 66.756327
5571 5 55.647317 19.714738 66.481926
5572 2 52.007139 33.493256 70.68642
5573 2 52.635406 32.203791 69.941802
5574 5 51.783165 32.611315 70.305308
5575 2 18.557088 5.399891 75.738735
5576 2 16.94162 5.417522 75.69576
5577 5 17.770117 4.952647 75.34646
5578 2 45.132308 13.780492 68.767279
5579 2 45.469931 15.335264 69.051159
5580 5 45.581394 14.574876 68.392438
5581 2 38.223286 9.387475 67.924671
5582 2 39.612158 9.132096 68.710618
5583 5 38.735793 8.711564 68.428368
5584 2 31.695771 13.259164 71.135596
5585 2 31.862572 12.094263 72.243332
5586 5 32.106277 12.377811 71.302728
5587 2 5.363906 9.544021 71.951276
5588 2 4.150068 8.817604 72.732819
5589 5 5.097629 9.162358 72.821139
5590 2 41.852028 30.711345 75.619855
5591 2 42.337211 31.213764 77.077274
5592 5 42.559292 31.21355 76.089748
5593 2 45.218314 23.924014 79.107937
5594 2 45.012581 22.673002 80.110204
5595 5 45.216379 23.663157 80.059347
5596 2 40.045937 10.185298 77.647256
5597 2 40.018148 10.600975 79.208773
5598 5 39.814039 10.915607 78.268628
5599 2 26.959365 31.176205 68.855872
5600 2 26.856824 29.65739 69.398626
5601 5 27.344421 30.538299 69.502432
5602 2 53.836543 18.276862 77.311173
5603 2 55.046132 18.087076 78.366052
5604 5 54.045913 18.003086 78.235533
5605 2 15.01209 22.269776 76.949946
5606 2 13.646953 22.546207 76.130262
5607 5 14.09337 22.6188 77.035784
5608 2 42.262526 23.466556 67.487803
5609 2 43.43425 22.91686 66.519923
5610 5 42.760669 22.655395 67.228762
5611 2 34.331855 34.179354 77.496029
5612 2 34.325558 33.400869 78.912298
5613 5 34.873225 33.602321 78.085251
5614 2 31.658333 8.423765 63.795409
5615 2 32.128824 8.385467 65.34107
5616 5 32.412779 8.623016 64.399015
5617 2 44.15463 19.979531 77.876325
5618 2 42.554039 19.871258 77.68067
5619 5 43.292366 20.348297 78.182502
5620 2 56.326471 24.555325 70.391436
5621 2 56.214519 23.951472 71.886335
5622 5 56.588625 24.709711 71.329877
5623 2 6.815093 8.062123 67.192906
5624 2 7.132056 7.31918 68.592715
5625 5 6.396715 7.593416 67.953501
5626 2 43.756198 11.787565 71.428879
5627 2 42.68007 10.649644 71.030154
5628 5 43.23428 11.030678 71.786588
5629 2 46.244522 17.446705 63.864642
5630 2 44.781964 18.011897 64.256276
5631 5 45.294344 17.19501 63.948559
5632 2 1.422456 16.356851 78.506281
5633 2 1.46482 16.587135 80.105365
5634 5 1.367957 17.047141 79.208961
5635 2 27.505188 29.258786 65.997399
5636 2 27.963314 29.017273 67.52831
5637 5 28.256107 29.372777 66.626968
5638 2 6.897385 28.4766 71.852783
5639 2 7.123034 29.375692 73.176646
5640 5 6.954175 28.437301 72.836887
5641 2 58.874971 7.701301 73.72475
5642 2 58.933935 6.879871 75.115316
5643 5 59.469061 7.170874 74.306932
5644 2 61.438748 9.68399 77.311031
5645 2 61.791156 10.668354 78.543399
5646 5 61.058008 10.122601 78.108457
5647 2 32.128975 12.879736 62.145282
5648 2 32.484556 11.693185 63.183335
5649 5 32.127907 11.899772 62.258862
5650 2 46.12099 15.874514 72.557628
5651 2 47.228775 16.205631 73.686817
5652 5 46.974755 16.342524 72.716631
5653 2 47.36395 13.598303 63.485721
5654 2 46.131978 12.85397 62.7508
5655 5 46.660407 12.918312 63.611701
5656 2 25.87078 21.417298 73.273594
5657 2 25.9748 19.804554 73.285092
5658 5 26.281543 20.646656 72.814665
5659 2 1.356923 17.880171 71.272206
5660 2 2.060022 18.544139 72.567078
5661 5 1.178966 18.237466 72.174372
5662 2 45.855905 11.142859 70.782887
5663 2 44.716796 10.030147 70.506847
5664 5 45.500596 10.525252 70.100576
5665 2 30.666451 2.021441 78.624883
5666 2 30.296701 2.416594 80.14772
5667 5 29.912929 2.173733 79.24314
5668 2 59.402183 12.471073 67.146448
5669 2 59.624593 10.871632 67.08148
5670 5 59.47964 11.706503 66.527849
5671 2 32.924613 23.69292 64.39915
5672 2 32.021237 24.370283 65.555432
5673 5 31.995347 23.892445 64.663509
5674 2 32.474697 32.622254 66.641675
5675 2 33.230477 32.303609 68.034211
5676 5 33.323072 32.747573 67.129308
5677 2 43.139756 25.784231 72.235944
5678 2 42.112268 25.954605 71.00017
5679 5 42.356032 26.294506 71.921894
5680 2 26.253716 22.011461 71.088948
5681 2 26.188577 23.302662 72.058717
5682 5 26.641045 22.905215 71.245184
5683 2 29.316295 22.800785 67.076762
5684 2 28.080165 21.856207 67.51454
5685 5 28.463488 22.41625 66.763579
5686 2 23.720824 15.506612 74.773388
5687 2 22.253398 15.617552 74.105369
5688 5 23.120642 16.110945 74.275599
5689 2 2.962291 10.589057 69.969641
5690 2 1.624713 11.414815 69.594269
5691 5 2.220298 11.112748 70.354901
5692 2 23.151842 6.292717 78.884051
5693 2 23.848509 4.852088 78.657915
5694 5 23.233338 5.543312 78.24767
5695 2 16.462388 11.049423 63.938224
5696 2 16.122446 11.263212 62.372776
5697 5 15.72648 11.057288 63.281255
5698 2 37.193677 11.048646 65.431553
5699 2 38.358346 10.715486 64.361764
5700 5 38.027243 11.395757 65.03417
5701 2 60.732894 35.404187 69.460646
5702 2 61.651212 34.739678 68.308684
5703 5 60.712396 34.798143 68.682494
5704 2 11.735177 35.153103 78.038195
5705 2 10.340868 34.661546 77.385378
5706 5 10.789766 35.403072 77.908021
5707 2 59.101494 22.171409 67.196937
5708 2 58.26282 23.379243 66.526371
5709 5 58.500252 22.926706 67.400078
5710 2 3.63384 4.39546 67.839153
5711 2 2.943364 3.248621 68.744635
5712 5 3.800947 3.758349 68.573588
5713 2 49.316974 16.478571 73.0528
5714 2 50.155571 17.825124 73.361745
5715 5 49.249305 17.461875 73.094798
5716 2 49.509188 4.686432 70.421007
5717 2 50.027763 4.687385 68.890329
5718 5 49.484028 4.178376 69.57574
5719 2 17.333833 11.790441 68.488341
5720 2 18.638915 12.720913 68.281268
5721 5 18.307436 11.76584 68.331106
5722 2 47.905763 8.138665 67.936174
5723 2 46.859727 7.181288 68.711503
5724 5 47.387542 8.042972 68.770153
5725 2 4.948892 5.866928 72.05672
5726 2 4.611617 6.771715 70.760764
5727 5 4.619212 5.828413 71.12771
5728 2 1.308048 26.557874 72.523761
5729 2 0.978722 26.652196 70.944348
5730 5 1.050249 27.181506 71.80414
5731 2 27.722128 12.091251 78.55286
5732 2 27.594972 11.858414 80.147072
5733 5 28.107968 11.597109 79.314556
5734 2 12.301721 11.832016 71.619487
5735 2 12.67622 10.795362 72.801433
5736 5 12.765875 10.982784 71.810795
5737 2 44.410315 30.21458 66.835299
5738 2 44.407274 28.80905 66.03757
5739 5 44.349977 29.23697 66.953064
5740 2 9.086837 6.390006 68.989007
5741 2 10.275088 6.600303 70.064056
5742 5 9.825673 6.991228 69.245685
5743 2 32.281286 34.954438 77.685819
5744 2 32.957455 35.106016 79.145858
5745 5 32.157391 35.355879 78.578414
5746 2 12.761619 33.177584 67.543611
5747 2 11.152154 33.323019 67.562748
5748 5 11.919614 32.663563 67.537246
5749 2 42.869985 21.374814 70.554948
5750 2 42.472677 19.825941 70.320357
5751 5 42.10591 20.762247 70.435861
5752 2 33.808072 24.670721 71.217179
5753 2 34.808357 23.681544 72.012702
5754 5 34.422015 24.616762 71.9875
5755 2 55.471801 16.434448 72.640535
5756 2 54.602834 15.319214 71.857564
5757 5 55.353834 15.991744 71.766849
5758 2 22.690087 1.811529 67.421991
5759 2 22.220742 2.017598 68.954683
5760 5 21.983795 1.58307 68.071752
5761 2 15.526804 25.160301 66.600175
5762 2 15.026636 25.860911 65.232376
5763 5 14.89133 25.071173 65.850868
5764 2 14.28823 5.72765 75.62587
5765 2 13.613238 4.692816 76.667695
5766 5 14.411771 4.8539 76.066926
5767 2 47.293447 1.97992 64.949816
5768 2 45.980434 2.350565 65.816138
5769 5 46.441603 1.618102 65.291402
5770 2 1.31734 31.366684 66.527289
5771 2 1.000045 29.98362 65.753756
5772 5 1.699482 30.698287 65.910487
5773 2 30.473605 13.660762 72.919376
5774 2 30.483739 14.302911 74.402427
5775 5 31.02972 13.786365 73.724479
5776 2 35.785893 17.702617 78.579837
5777 2 36.919372 17.415502 77.464183
5778 5 36.757495 17.594902 78.447106
5779 2 22.470534 2.371286 75.253092
5780 2 22.428084 1.005153 76.115516
5781 5 23.022329 1.618189 75.571837
5782 2 30.155604 7.120674 79.717284
5783 2 30.843411 6.609982 78.346879
5784 5 30.929875 6.628094 79.355206
5785 2 49.036821 11.722019 69.203303
5786 2 48.763944 10.720886 67.964285
5787 5 48.866951 11.691582 68.23199
5788 2 35.602629 1.012078 77.515711
5789 2 33.988285 1.058439 77.455397
5790 5 34.832696 1.015548 76.898928
5791 2 7.389574 33.231888 72.84095
5792 2 7.86748 33.402651 74.375336
5793 5 8.164903 33.140409 73.444049
5794 2 16.836986 26.461038 64.137224
5795 2 18.063652 25.424276 64.316973
5796 5 17.08107 25.578637 64.504676
5797 2 49.333707 27.476564 76.899521
5798 2 48.357729 26.701971 75.870265
5799 5 48.42625 27.10344 76.796901
5800 2 15.424699 23.87762 75.251482
5801 2 15.356121 22.791395 74.056782
5802 5 15.705632 22.968811 74.989998
5803 2 51.153595 3.725374 79.479711
5804 2 51.793526 2.314272 79.93925
5805 5 51.922224 3.1222 79.343249
5806 2 44.694042 27.40654 72.277793
5807 2 43.309487 28.10108 72.738789
5808 5 44.24687 28.277361 72.400019
5809 2 56.781257 19.048258 68.772181
5810 2 56.333436 20.559998 68.41722
5811 5 56.012246 19.666181 68.767157
5812 2 31.471682 4.903053 62.465647
5813 2 31.112516 4.071894 63.80433
5814 5 31.80148 4.669748 63.365666
5815 2 47.630484 18.62323 72.147721
5816 2 48.396008 19.41646 70.96592
5817 5 47.693738 18.715985 71.167605
5818 2 60.927689 18.032921 62.858794
5819 2 61.760435 19.258756 63.503588
5820 5 61.252976 18.407952 63.711303
5821 2 55.079488 22.637919 79.95192
5822 2 54.526957 23.215904 78.547449
5823 5 54.485093 23.317139 79.553693
5824 2 29.518775 28.694766 73.064342
5825 2 29.667244 28.863022 74.664824
5826 5 29.772725 28.219496 73.890695
5827 2 31.75634 3.874799 79.386994
5828 2 31.165915 4.046368 77.892384
5829 5 31.499364 4.543411 78.708649
5830 2 47.115801 2.668028 69.914885
5831 2 47.826953 3.460002 71.131001
5832 5 46.938548 3.15297 70.755506
5833 2 6.806238 22.046949 63.104959
5834 2 5.822465 22.07408 64.386891
5835 5 6.082191 21.55369 63.558481
5836 2 12.178772 14.706735 65.928791
5837 2 12.263039 13.628248 64.728099
5838 5 12.394429 13.766509 65.722155
5839 2 57.07228 18.82046 64.107657
5840 2 56.310714 20.229231 64.325089
5841 5 56.875898 19.688727 63.682477
5842 2 53.271729 32.922311 79.870561
5843 2 53.578319 34.487626 80.130731
5844 5 52.961597 33.835496 79.662855
5845 2 6.239709 8.215532 70.448722
5846 2 6.595091 9.665575 69.829874
5847 5 6.014905 8.843263 69.721641
5848 2 33.654226 12.498732 77.465277
5849 2 33.598199 11.974571 78.993024
5850 5 34.114769 11.926587 78.123898
5851 2 14.927252 34.863484 78.462718
5852 2 15.211879 34.337544 79.96414
5853 5 15.591107 34.871545 79.192418
5854 2 39.443594 34.489697 78.75462
5855 2 38.657547 34.250101 80.146244
5856 5 39.43689 34.728097 79.711882
5857 2 37.055151 32.263808 76.583972
5858 2 35.988241 33.314725 75.976377
5859 5 36.780571 32.724645 75.756044
5860 2 60.519956 15.077117 74.739786
5861 2 58.994252 15.154161 75.267222
5862 5 59.823717 15.696991 75.062647
5863 2 19.5543 8.53111 68.00284
5864 2 18.345881 7.859311 68.839682
5865 5 19.351697 7.953488 68.776491
5866 2 57.352833 14.543709 77.414819
5867 2 57.951495 13.062737 77.660222
5868 5 57.23193 13.592141 77.184316
5869 2 31.811128 22.407371 79.361803
5870 2 30.202409 22.475009 79.500892
5871 5 31.022956 21.913593 79.69074
5872 2 11.122494 22.819604 75.259784
5873 2 11.192015 21.234933 74.950139
5874 5 11.729129 22.092193 74.983923
5875 2 28.757495 16.486199 65.143303
5876 2 28.711603 16.284958 63.540402
5877 5 28.174045 16.215608 64.395241
5878 2 35.898387 15.523848 76.998107
5879 2 37.023371 14.69371 76.187442
5880 5 36.850085 15.26414 77.005433
5881 2 33.554642 7.571793 72.46061
5882 2 33.249958 6.782862 73.8378
5883 5 32.858896 7.402084 73.139113
5884 2 59.253103 14.291123 79.346333
5885 2 60.15605 13.897972 78.064921
5886 5 59.705962 13.538494 78.897221
5887 2 8.620896 10.157286 74.843116
5888 2 9.068699 9.841881 76.363605
5889 5 8.361184 9.6698 75.660513
5890 2 19.994369 35.10265 79.728467
5891 2 21.514308 34.74511 80.145416
5892 5 20.929151 35.409091 79.654246
5893 2 58.137468 3.032211 65.020338
5894 2 58.647378 2.761503 63.510834
5895 5 58.880397 2.657535 64.490334
5896 2 34.636104 29.80936 77.670386
5897 2 35.207993 31.254275 77.226473
5898 5 35.450837 30.365035 77.644572
5899 2 16.147095 27.268076 66.693625
5900 2 16.26173 26.897984 68.262633
5901 5 16.789368 27.076174 67.417427
5902 2 13.721976 13.35017 76.781538
5903 2 12.154339 13.105061 77.08867
5904 5 12.939098 13.723161 77.251868
5905 2 40.228945 11.01575 67.543586
5906 2 39.920542 10.580849 66.017924
5907 5 39.501573 10.865185 66.894363
5908 2 8.490063 16.732401 77.80228
5909 2 7.958762 17.943304 76.873126
5910 5 8.569506 17.702841 77.643643
5911 2 60.894632 32.675273 69.225967
5912 2 62.179798 32.321994 70.13999
5913 5 61.168351 32.353514 70.117471
5914 2 44.671932 3.853645 73.228897
5915 2 43.336709 4.167286 74.083709
5916 5 43.737024 4.159552 73.154077
5917 2 57.649144 8.591187 75.613776
5918 2 59.120075 8.75348 76.263329
5919 5 58.146031 9.013329 76.354134
5920 2 62.165538 19.552567 66.246059
5921 2 62.166517 20.701847 65.109816
5922 5 61.583275 20.170922 65.744225
5923 2 10.058441 27.279372 76.226075
5924 2 11.174824 28.342603 75.74118
5925 5 10.98729 27.576331 76.37536
5926 2 59.543072 23.701418 64.766835
5927 2 60.678444 24.629331 65.446398
5928 5 60.498008 23.945094 64.722664
5929 2 21.474648 34.866699 66.388533
5930 2 22.004266 35.433385 67.806371
5931 5 22.251821 35.276034 66.837617
5932 2 28.634327 24.137742 64.685461
5933 2 27.490239 23.02097 64.449283
5934 5 27.844902 23.712953 65.09728
5935 2 44.960238 25.528892 76.209064
5936 2 46.523269 25.120651 76.255653
5937 5 45.721453 25.37669 76.817848
5938 2 42.058234 2.830446 79.254999
5939 2 41.789449 1.507536 80.143571
5940 5 41.73734 1.898588 79.211428
5941 2 8.678565 16.336931 71.776054
5942 2 8.846618 16.919346 73.274202
5943 5 8.503859 17.124328 72.344135
5944 2 41.194802 7.731994 78.357209
5945 2 42.394692 8.747018 78.733884
5946 5 41.631815 8.575473 78.091141
5947 2 55.915333 11.457017 77.816152
5948 2 54.90088 11.291264 79.063271
5949 5 54.971703 11.551927 78.087789
5950 2 27.219292 5.695669 73.733849
5951 2 28.253267 5.867343 72.503679
5952 5 28.046267 5.33207 73.337442
5953 2 14.266382 25.38707 70.662073
5954 2 15.679907 26.117448 70.945608
5955 5 14.952183 25.544298 71.353585
5956 2 19.144356 21.874003 78.794681
5957 2 18.078763 20.870978 79.480501
5958 5 18.406086 21.82821 79.447438
5959 2 12.593443 19.557353 67.232077
5960 2 12.103506 19.792929 68.754037
5961 5 11.834452 19.428328 67.848938
5962 2 4.643653 13.950799 76.123513
5963 2 6.13327 14.478887 76.461243
5964 5 5.331633 14.605429 75.856353
5965 2 38.179048 4.574431 64.522415
5966 2 37.363708 4.640821 63.128604
5967 5 37.812375 4.021876 63.792029
5968 2 44.319782 28.243609 74.994201
5969 2 43.203638 29.3301 74.563324
5970 5 44.052768 29.187887 75.095565
5971 2 57.559723 30.50505 68.139994
5972 2 57.312135 32.102046 68.125883
5973 5 57.748619 31.340355 68.629704
5974 2 22.483187 19.268631 65.025501
5975 2 23.90991 19.440205 64.285962
5976 5 22.906747 19.439629 64.151094
5977 2 48.764098 6.793564 70.329473
5978 2 49.709419 7.241256 69.097468
5979 5 49.013666 6.571762 69.401167
5980 2 43.468359 6.05714 70.376161
5981 2 42.792888 6.616532 69.018695
5982 5 42.946079 5.790268 69.582919
5983 2 60.37059 13.169437 63.117218
5984 2 60.991118 13.286689 64.604865
5985 5 61.019507 13.668394 63.667836
5986 2 43.037631 24.704466 63.595128
5987 2 42.719097 23.397986 64.491532
5988 5 43.185877 24.296055 64.480822
5989 2 57.537774 26.031356 77.857351
5990 2 58.031548 24.877354 76.839332
5991 5 58.312903 25.475236 77.606081
5992 2 7.971262 13.715896 77.673969
5993 2 9.472228 14.312212 77.615647
5994 5 8.742831 13.975329 78.23129
5995 2 2.463243 6.083332 78.024403
5996 2 2.607013 5.248899 76.647832
5997 5 2.111933 6.003549 77.106009
5998 2 36.412863 13.554112 67.267902
5999 2 35.538968 12.471737 66.445303
6000 5 36.438868 12.650545 66.872778
6001 2 44.818635 4.137875 75.702844
6002 2 46.172274 4.148319 74.81998
6003 5 45.475885 3.555339 75.253506
6004 2 56.771222 14.819426 73.379356
6005 2 58.152039 15.559642 72.982719
6006 5 57.462643 15.438511 73.713874
6007 2 25.460282 4.368833 64.310249
6008 2 25.801902 4.269818 62.733738
6009 5 26.177588 4.498227 63.645449
6010 2 57.176239 35.432049 74.065399
6011 2 57.71011 34.234806 73.120155
6012 5 57.785302 35.22471 73.317547
6013 2 25.851659 28.411451 63.478054
6014 2 25.307972 29.544139 62.461532
6015 5 25.191689 29.138324 63.381489
6016 2 8.129421 4.323134 64.653973
6017 2 8.987697 4.430659 66.019145
6018 5 8.987559 4.634776 65.027751
6019 2 6.227896 21.2451 75.212885
6020 2 7.629447 20.846261 74.513975
6021 5 6.974629 20.601259 75.2459
6022 2 1.913209 24.328664 75.123481
6023 2 1.054803 25.510773 75.814606
6024 5 1.00432 24.703168 75.206532
6025 2 12.678881 19.198142 65.062769
6026 2 12.514415 18.061102 63.926113
6027 5 12.064395 18.849169 64.374398
6028 2 20.862733 4.722603 69.662281
6029 2 21.835101 4.779945 70.951896
6030 5 20.870587 4.731658 70.648733
6031 2 19.982288 11.09186 72.044114
6032 2 20.89721 11.088215 73.37633
6033 5 20.324192 10.516343 72.768761
6034 2 39.292105 20.548138 65.715331
6035 2 40.17964 19.382513 66.397604
6036 5 39.735502 19.684555 65.539676
6037 2 56.852128 14.444198 69.04474
6038 2 57.010115 15.121506 70.503571
6039 5 56.481723 14.451556 69.959057
6040 2 9.600999 20.104874 68.550357
6041 2 9.956362 21.198648 67.414896
6042 5 10.217877 20.841008 68.324968
6043 2 50.610225 14.903821 73.898044
6044 2 49.17248 14.727896 74.614868
6045 5 50.059543 14.278429 74.426122
6046 2 28.448279 22.431287 69.814188
6047 2 29.661728 23.490276 69.948269
6048 5 29.082915 22.978924 69.294034
6049 2 15.356413 7.580885 66.001885
6050 2 16.011115 7.702669 67.474444
6051 5 15.587604 8.221559 66.715551
6052 2 33.776454 28.582693 66.971823
6053 2 34.601484 28.631965 65.583013
6054 5 34.029804 28.049316 66.181536
6055 2 52.148687 7.42235 66.988444
6056 2 52.60539 6.619225 68.314456
6057 5 52.91811 7.239352 67.578131
6058 2 60.492146 30.414452 80.140269
6059 2 60.089068 30.723753 78.606073
6060 5 60.379069 31.14031 79.481805
6061 2 43.917164 24.381228 74.640796
6062 2 44.474381 25.789815 74.077513
6063 5 44.29414 24.821876 73.842704
6064 2 25.703372 1.196789 64.298099
6065 2 25.00201 1.546601 65.711471
6066 5 24.833275 1.243068 64.760722
6067 2 28.100594 10.833473 72.552253
6068 2 28.047825 9.550348 71.57108
6069 5 28.297614 9.86829 72.499005
6070 2 31.821065 13.517013 68.662088
6071 2 31.9226 14.153193 67.179906
6072 5 32.446185 13.920605 68.014345
6073 2 44.003189 33.875255 76.220972
6074 2 43.399085 35.33176 75.866647
6075 5 43.82004 34.769399 76.595396
6076 2 43.807302 19.399212 80.098318
6077 2 43.046925 18.324137 79.161336
6078 5 43.076171 18.737017 80.085026
6079 2 8.758955 14.773646 64.552212
6080 2 10.052204 14.401913 65.44732
6081 5 9.048574 14.532225 65.463842
6082 2 46.530365 20.737593 71.43603
6083 2 46.354376 21.636967 72.767214
6084 5 46.260471 21.629675 71.759417
6085 2 48.857605 13.382009 65.55992
6086 2 49.911379 12.739341 66.603199
6087 5 48.954237 13.045575 66.482256
6088 2 24.134986 22.739425 71.491242
6089 2 23.877107 22.767778 73.086419
6090 5 23.549285 23.111379 72.192552
6091 2 39.621789 1.315741 65.761965
6092 2 38.816932 2.680256 65.442279
6093 5 39.292956 1.888339 65.029004
6094 2 5.826995 26.607191 73.31812
6095 2 5.520064 26.749081 71.737754
6096 5 5.247741 27.061324 72.661264
6097 2 18.441423 1.837552 67.644917
6098 2 18.504514 1.238082 66.145401
6099 5 18.529556 1.001213 67.129165
6100 2 10.674588 26.737003 66.747315
6101 2 11.719385 27.364706 67.808581
6102 5 10.861663 27.533604 67.29837
6103 2 47.784893 14.910894 70.93123
6104 2 48.400766 14.586015 72.389671
6105 5 47.603272 14.446124 71.78225
6106 2 53.915563 5.016747 79.601716
6107 2 54.52472 5.599935 78.223051
6108 5 54.174498 5.848935 79.139495
6109 2 62.159751 30.611061 64.329366
6110 2 62.104191 30.708103 62.717103
6111 5 61.686926 31.040249 63.577392
6112 2 26.866956 6.339702 66.496278
6113 2 27.407746 5.788518 67.916009
6114 5 26.776167 6.443841 67.47308
6115 2 33.875673 1.000039 68.793332
6116 2 32.882981 1.541535 69.947993
6117 5 33.826056 1.231077 69.751137
6118 2 23.837856 3.770543 73.247941
6119 2 23.626541 3.709689 71.646836
6120 5 23.399116 3.261731 72.525551
6121 2 9.891737 35.422633 73.393661
6122 2 9.061392 35.424342 74.780174
6123 5 9.027503 35.174872 73.799795
6124 2 6.039782 11.082976 73.368639
6125 2 6.570681 10.979601 74.891581
6126 5 6.684476 11.464609 74.010477
6127 2 10.270709 18.628896 66.489066
6128 2 9.936397 18.892841 64.930071
6129 5 10.223117 19.330086 65.796752
6130 2 24.924048 34.322108 77.619072
6131 2 25.429091 33.974941 76.123645
6132 5 25.244782 33.589621 77.041297
6133 2 34.488808 24.971929 63.529844
6134 2 34.881636 24.484315 65.019748
6135 5 34.907516 25.263485 64.374184
6136 2 5.803433 16.626308 67.87738
6137 2 6.321393 15.12696 67.568237
6138 5 5.532602 15.677703 67.882907
6139 2 44.167944 6.213722 79.757607
6140 2 43.470396 6.165566 78.300554
6141 5 43.361694 6.48137 79.256054
6142 2 20.909632 1.246185 79.512613
6143 2 21.883463 0.999266 78.246682
6144 5 21.853302 1.128665 79.250113
6145 2 17.025552 15.078826 69.272125
6146 2 16.449778 13.803608 68.4633
6147 5 16.998422 14.650488 68.383856
6148 2 53.601566 15.472284 79.965561
6149 2 52.414521 16.229068 79.171773
6150 5 53.388008 15.95472 79.131967
6151 2 61.849 8.987635 73.263744
6152 2 60.491474 9.214122 74.110928
6153 5 61.094075 8.517705 73.690925
6154 2 8.047346 28.141973 64.897739
6155 2 9.514652 28.19589 65.573017
6156 5 8.706446 28.747106 65.313229
6157 2 23.738287 31.248817 62.760479
6158 2 23.69874 32.831856 62.437495
6159 5 23.147364 32.038497 62.739311
6160 2 20.129808 30.412877 74.026757
6161 2 19.879725 31.876021 73.387567
6162 5 20.109648 30.913109 73.176703
6163 2 14.402129 14.413567 69.209422
6164 2 13.450918 15.484314 69.958151
6165 5 14.38316 15.319241 69.600094
6166 2 50.56659 31.820819 67.020473
6167 2 49.73522 32.874407 66.1201
6168 5 50.041952 31.912352 66.190047
6169 2 52.394668 7.198954 77.408888
6170 2 52.544476 7.321744 79.013374
6171 5 53.022711 7.44279 78.129538
6172 2 58.202755 8.308395 70.272556
6173 2 58.365143 8.531322 68.680127
6174 5 58.67392 7.979637 69.470588
6175 2 42.266135 20.175619 72.894759
6176 2 41.463593 19.131802 73.831919
6177 5 41.475078 20.079398 73.47631
6178 2 41.54696 30.582286 67.808025
6179 2 42.104194 30.446854 66.297051
6180 5 42.252232 30.165846 67.258116
6181 2 44.35547 8.58908 77.369885
6182 2 44.903807 10.072705 77.701667
6183 5 44.072176 9.518248 77.541998
6184 2 9.936041 3.379511 75.131171
6185 2 9.361716 3.52379 73.627432
6186 5 9.696179 4.035297 74.434291
6187 2 0.997719 20.012143 70.37367
6188 2 1.734154 19.664247 68.977773
6189 5 1.055466 19.339125 69.654682
6190 2 56.005696 26.504775 72.458456
6191 2 56.193711 28.059532 72.857548
6192 5 56.551277 27.123336 72.999709
6193 2 38.968493 30.40963 78.212485
6194 2 37.767387 30.260629 77.141486
6195 5 38.556368 30.829864 77.420786
6196 2 54.184765 16.537908 75.689821
6197 2 53.032796 16.222388 76.778541
6198 5 53.359427 16.019434 75.842246
6199 2 25.500364 11.273279 72.414683
6200 2 26.101079 9.78092 72.569294
6201 5 25.252587 10.318894 72.446118
6202 2 19.819855 10.955014 78.009076
6203 2 19.172071 11.504209 76.634065
6204 5 20.03099 11.414536 77.162027
6205 2 2.67572 27.284079 65.235375
6206 2 1.521438 26.991652 66.328085
6207 5 2.518242 26.962662 66.15468
6208 2 43.393529 29.461816 78.192057
6209 2 42.723896 28.740034 76.91045
6210 5 43.522548 29.271907 77.23262
6211 2 32.763234 14.909542 74.7928
6212 2 32.926435 16.516127 74.728402
6213 5 32.952482 15.709111 75.33879
6214 2 28.761314 27.60223 70.218039
6215 2 29.943665 28.511873 70.839724
6216 5 29.21606 27.843467 71.059611
6217 2 18.809904 8.18418 72.362223
6218 2 18.710324 8.7047 70.835449
6219 5 19.216541 8.799284 71.706842
6220 2 4.944262 30.752416 78.242676
6221 2 3.779546 31.604622 77.515299
6222 5 4.504922 30.912944 77.37409
6223 2 29.561062 2.595864 72.662361
6224 2 30.508377 1.728455 71.681498
6225 5 29.552108 1.99337 71.881238
6226 2 31.732313 24.478996 67.732781
6227 2 30.167003 24.598794 68.116644
6228 5 31.057101 24.208374 68.399178
6229 2 19.970364 3.41333 67.499957
6230 2 19.588658 4.33067 66.225327
6231 5 19.696871 4.322429 67.231681
6232 2 35.409295 26.82421 67.377408
6233 2 35.744792 26.710868 65.800547
6234 5 35.801168 26.233497 66.691314
6235 2 17.359593 18.6187 64.960409
6236 2 17.293943 18.5223 63.348487
6237 5 17.063684 18.04768 64.212341
6238 2 28.977367 32.017289 72.776072
6239 2 28.935024 30.706428 71.831749
6240 5 28.384255 31.308838 72.430317
6241 2 6.450291 35.058951 72.053724
6242 2 8.028551 35.337596 71.845518
6243 5 7.260289 35.400423 72.501532
6244 2 25.500736 17.196168 76.214876
6245 2 23.972464 17.679853 76.009136
6246 5 24.562052 16.895862 76.258679
6247 2 50.837888 22.431171 78.853706
6248 2 49.466347 21.637336 78.536535
6249 5 50.336661 21.605002 79.052321
6250 2 37.637545 3.893329 73.069475
6251 2 37.708219 3.343716 74.58764
6252 5 37.919417 3.126148 73.621935
6253 2 19.457635 21.731029 70.713193
6254 2 20.620911 21.491128 69.617231
6255 5 19.660982 21.280444 69.859463
6256 2 11.139659 27.057435 80.117503
6257 2 11.44378 25.667555 79.350925
6258 5 11.556272 26.672653 79.310281
6259 2 10.887451 13.981075 73.99216
6260 2 9.841483 14.652681 72.959303
6261 5 10.483901 13.882763 73.097334
6262 2 36.714108 27.100523 69.126561
6263 2 36.48214 27.79282 70.568369
6264 5 36.151462 27.748827 69.612731
6265 2 15.815879 13.254516 63.255686
6266 2 14.471476 12.706801 62.545416
6267 5 14.974793 13.539038 62.825741
6268 2 32.489223 11.55943 65.379053
6269 2 31.029992 11.230204 64.767373
6270 5 31.534919 11.80407 65.43089
6271 2 41.966414 28.250176 71.001437
6272 2 40.494548 28.868245 71.253426
6273 5 41.071176 28.043292 71.360575
6274 2 30.089953 27.154127 66.525208
6275 2 29.326223 25.733054 66.429482
6276 5 30.113525 26.269953 66.088274
6277 2 12.748948 24.956843 65.374599
6278 2 11.486848 24.478985 64.485414
6279 5 12.486492 24.637717 64.478772
6280 2 57.159 1.405711 79.902334
6281 2 58.04712 2.754129 79.832267
6282 5 57.17086 2.360305 80.151013
6283 2 41.205592 18.668194 71.695922
6284 2 42.470598 17.800364 71.187468
6285 5 41.554901 17.749074 71.615714
6286 2 25.400596 6.799693 78.749455
6287 2 25.713007 5.477488 79.624708
6288 5 25.845246 5.919434 78.723751
6289 2 38.700654 31.536455 73.244727
6290 2 38.60704 31.607783 71.632883
6291 5 38.382778 31.050244 72.447367
6292 2 9.063994 20.248236 76.083083
6293 2 9.9472 19.318818 77.066966
6294 5 9.168517 19.963918 77.021949
6295 2 50.033296 8.919477 67.714429
6296 2 49.512922 9.497753 66.297847
6297 5 50.320771 9.151104 66.799586
6298 2 3.085844 16.959876 63.330252
6299 2 3.215511 17.458521 64.86206
6300 5 2.617886 17.452997 64.04515
6301 2 50.854894 2.798831 64.815103
6302 2 50.385239 2.793702 63.268722
6303 5 50.564776 3.380954 64.073351
6304 2 26.273433 25.655699 74.036706
6305 2 25.689972 24.90194 75.341817
6306 5 25.712382 24.899061 74.32988
6307 2 11.008038 20.684553 72.84003
6308 2 11.889865 20.69326 71.485704
6309 5 11.457576 20.1012 72.183642
6310 2 53.50206 8.705797 73.348274
6311 2 53.038319 8.718243 71.800151
6312 5 53.824001 8.843222 72.425941
6313 2 48.409725 26.676607 67.598722
6314 2 48.65103 26.149669 69.107365
6315 5 49.107765 26.406338 68.241316
6316 2 38.941144 26.956515 73.740647
6317 2 39.061425 28.272885 72.810809
6318 5 39.02059 27.261532 72.805829
6319 2 21.413686 8.864646 71.816693
6320 2 20.889397 9.16078 70.316919
6321 5 21.70703 9.12935 70.912751
6322 2 26.456881 27.595638 70.050875
6323 2 27.077359 27.277924 68.592808
6324 5 26.812132 26.872532 69.481537
6325 2 26.12706 34.435067 66.083745
6326 2 26.108367 35.413265 64.797403
6327 5 26.685225 35.041199 65.541264
6328 2 40.890531 29.514534 73.317563
6329 2 40.562761 30.768424 72.352046
6330 5 40.789463 30.495712 73.300077
6331 2 40.803248 22.938495 80.151407
6332 2 40.86435 23.413115 78.607743
6333 5 41.381707 23.366367 79.476469
6334 2 10.363258 12.083408 79.689596
6335 2 9.60987 13.434128 80.158485
6336 5 10.425859 13.067931 79.684577
6337 2 6.987677 31.079092 63.700746
6338 2 8.356563 31.480917 64.460078
6339 5 7.397725 31.756493 64.289151
6340 2 11.532828 26.674182 64.699083
6341 2 11.460218 27.476876 63.29826
6342 5 11.058464 27.396934 64.223858
6343 2 40.890825 26.211901 77.568415
6344 2 40.312638 26.004535 79.06327
6345 5 40.512888 25.541579 78.185718
6346 2 6.172148 24.561019 68.543641
6347 2 5.683288 24.789068 70.067093
6348 5 5.387282 24.512924 69.139379
6349 2 23.784029 25.495546 64.950273
6350 2 24.581534 25.846998 66.311288
6351 5 24.45433 26.104969 65.340826
6352 2 38.815223 24.213064 78.632812
6353 2 38.264469 24.054996 80.143964
6354 5 39.080806 24.260033 79.581754
6355 2 48.419666 1.291497 71.625113
6356 2 48.78989 1.826052 73.104667
6357 5 48.684176 0.999795 72.529643
6358 2 52.024991 9.372263 77.724942
6359 2 52.347585 9.550806 76.151426
6360 5 52.749624 9.340636 77.056258
6361 2 32.848844 21.026025 70.558922
6362 2 32.824082 21.738478 69.108511
6363 5 32.833254 20.847544 69.588802
6364 2 12.846322 28.39021 71.453843
6365 2 14.164012 28.841052 72.273799
6366 5 13.152279 28.815266 72.289874
6367 2 18.197044 5.894389 67.863326
6368 2 17.587085 6.515996 66.501911
6369 5 18.00624 5.693254 66.916558
6370 2 23.575532 15.144414 64.768206
6371 2 23.659908 14.778566 63.196286
6372 5 23.239019 14.522345 64.080441
6373 2 50.672432 29.768801 67.814153
6374 2 49.702671 28.608684 68.384757
6375 5 50.643698 28.980839 68.407046
6376 2 39.198017 7.373811 73.023296
6377 2 38.737917 7.124012 71.494308
6378 5 38.481775 7.560248 72.371016
6379 2 38.267928 28.287258 77.969082
6380 2 36.669971 28.524824 77.924457
6381 5 37.398011 27.859476 78.15205
6382 2 59.189952 28.013299 66.400846
6383 2 58.62146 26.513725 66.600822
6384 5 58.939896 27.345192 67.082268
6385 2 7.98598 27.54986 67.014916
6386 2 8.124408 28.153317 68.507756
6387 5 8.492054 28.193235 67.56554
6388 2 55.031539 7.967493 77.40247
6389 2 55.960832 9.288824 77.451422
6390 5 55.097649 8.901458 77.091714
6391 2 41.873611 20.813084 63.028332
6392 2 40.964515 19.566984 63.510695
6393 5 41.766715 20.139579 63.74121
6394 2 54.838307 27.062103 76.505716
6395 2 54.20655 28.147644 77.522761
6396 5 54.392928 27.163032 77.380177
6397 2 33.733152 19.07113 77.470876
6398 2 33.798543 19.718553 78.950221
6399 5 33.289535 19.712257 78.075351
6400 2 36.924164 7.631459 70.113468
6401 2 36.301144 6.217884 70.588389
6402 5 37.057185 6.654648 70.076366
6403 2 55.782302 3.861728 79.338266
6404 2 56.026216 5.229363 80.164083
6405 5 56.391143 4.632183 79.43283
6406 2 42.429117 16.820842 74.756361
6407 2 41.813261 16.271844 73.366678
6408 5 41.620822 16.429752 74.34778
6409 2 51.870896 16.710026 63.698804
6410 2 51.479524 17.135099 65.20812
6411 5 51.108644 16.875774 64.302733
6412 2 38.245301 33.343007 65.811764
6413 2 39.399732 33.040299 66.901513
6414 5 39.054154 33.718152 66.233966
6415 2 46.091701 29.498918 74.323492
6416 2 45.643149 30.039835 72.868121
6417 5 45.743427 30.287803 73.84433
6418 2 20.70185 18.816737 63.797214
6419 2 20.198892 18.114436 62.431306
6420 5 21.010347 18.449364 62.935183
6421 2 55.388932 32.541178 78.910162
6422 2 56.106057 33.539095 79.959823
6423 5 55.333786 33.43999 79.31306
6424 2 32.274534 32.70597 76.860709
6425 2 32.613798 32.091878 78.316623
6426 5 33.01443 32.417437 77.445973
6427 2 57.202535 22.001957 78.417891
6428 2 58.201485 22.639294 77.318894
6429 5 57.862047 21.77437 77.720411
6430 2 9.141301 25.917422 79.615382
6431 2 9.710047 26.32094 78.15744
6432 5 9.023323 26.547652 78.865634
6433 2 57.486553 19.60886 77.254949
6434 2 56.471754 19.927966 78.471605
6435 5 56.603498 19.992468 77.470101
6436 2 31.740765 3.559869 72.478115
6437 2 31.731345 4.099528 70.954771
6438 5 32.129817 3.41357 71.583427
6439 2 32.317802 16.940731 72.659343
6440 2 31.569057 15.525549 72.439035
6441 5 32.195641 16.200378 72.018886
6442 2 16.894851 5.753442 72.899764
6443 2 16.561119 4.183792 73.091381
6444 5 16.23875 5.050399 72.679557
6445 2 50.262676 10.269009 76.001776
6446 2 49.022628 10.398565 77.030072
6447 5 49.723471 10.916344 76.515046
6448 2 60.167896 14.95977 70.777597
6449 2 60.232568 15.591627 72.263689
6450 5 59.691273 15.54866 71.409474
6451 2 48.468284 32.577882 74.636899
6452 2 50.069447 32.383597 74.739021
6453 5 49.262057 32.268376 74.139543
6454 2 45.207349 18.276084 78.755517
6455 2 44.737893 16.817747 79.270064
6456 5 45.054684 17.345308 78.466416
6457 2 43.905297 7.164803 63.283154
6458 2 45.083799 7.125022 62.177963
6459 5 44.52812 7.730865 62.768474
6460 2 28.480835 22.421924 78.107543
6461 2 28.643093 23.340625 76.787863
6462 5 28.227028 22.494969 77.157029
6463 2 49.647828 8.366297 79.040145
6464 2 48.796064 9.727489 79.223315
6465 5 49.168204 8.917555 79.702946
6466 2 12.208811 5.285345 75.09115
6467 2 12.358759 3.681197 75.218123
6468 5 11.835621 4.427546 74.777875
6469 2 33.42532 4.635587 73.398563
6470 2 34.572363 4.127596 72.379675
6471 5 33.716978 4.663258 72.456544
6472 2 2.117404 3.71781 64.086143
6473 2 3.474179 4.406789 64.630536
6474 5 2.871442 3.597597 64.710808
6475 2 40.701297 12.581531 75.768814
6476 2 41.426912 12.849984 77.187726
6477 5 40.961044 13.290043 76.404245
6478 2 25.40955 27.757619 73.791534
6479 2 25.471244 29.357581 74.011106
6480 5 25.050754 28.496715 74.337642
6481 2 16.029982 23.772342 72.137924
6482 2 15.760179 22.611186 71.046678
6483 5 15.334592 23.368127 71.56672
6484 2 33.931644 6.771825 79.371641
6485 2 33.578813 5.233516 79.023771
6486 5 34.164705 6.020807 78.775918
6487 2 4.091412 24.097437 75.227616
6488 2 4.413701 22.518536 75.104738
6489 5 3.856928 23.277258 74.732081
6490 2 6.285126 21.690719 70.264445
6491 2 4.940746 22.560612 70.045753
6492 5 5.952436 22.591688 70.039045
6493 2 40.725068 20.459144 80.043158
6494 2 42.137224 21.21918 79.843021
6495 5 41.600281 20.3987 79.591961
6496 2 57.207951 4.625871 77.398127
6497 2 58.43671 4.393533 78.421877
6498 5 57.748548 3.930189 77.841987
6499 2 54.602613 34.932611 69.575399
6500 2 54.185393 33.666021 70.488402
6501 5 54.493607 33.952157 69.567718
6502 2 41.246809 15.626644 77.346261
6503 2 42.740719 15.178356 77.769542
6504 5 41.761015 14.928375 77.816626
6505 2 58.302102 33.53089 79.725157
6506 2 58.333667 31.915063 79.723159
6507 5 58.904486 32.750269 79.7567
6508 2 3.017312 26.851121 70.069523
6509 2 3.293764 26.93029 71.659869
6510 5 3.015102 27.461475 70.844567
6511 2 57.722623 21.539409 74.451423
6512 2 57.221654 22.781763 75.35557
6513 5 57.969519 22.114548 75.213976
6514 2 58.00317 11.079501 68.816884
6515 2 57.804866 10.471505 70.301105
6516 5 58.450899 10.561471 69.527105
6517 2 19.749142 23.44241 69.087359
6518 2 19.520289 22.715676 67.662094
6519 5 19.087491 22.949237 68.546776
6520 2 12.085832 5.432206 72.844749
6521 2 10.732791 5.619866 71.98106
6522 5 11.469743 4.971209 72.227378
6523 2 11.861122 10.93345 67.31731
6524 2 11.399003 11.432179 65.851154
6525 5 11.542378 11.718149 66.811463
6526 2 48.49258 5.987341 77.265158
6527 2 47.753068 4.691516 76.643987
6528 5 48.46418 5.00165 77.294112
6529 2 34.811432 14.502352 70.607971
6530 2 35.315755 14.63188 69.078011
6531 5 35.607933 14.444323 70.028791
6532 2 57.951599 12.302122 73.022277
6533 2 57.042548 13.092133 71.944593
6534 5 57.886955 13.137119 72.500902
6535 2 27.47053 29.090615 71.544436
6536 2 25.968228 29.584726 71.877361
6537 5 26.889644 29.886845 71.587113
6538 2 11.129771 33.219069 72.337969
6539 2 11.150678 34.346362 71.180097
6540 5 11.48231 34.111036 72.107011
6541 2 36.408462 8.586381 73.392912
6542 2 35.964142 8.619368 71.839404
6543 5 35.865808 9.081606 72.734498
6544 2 1.54241 30.806206 78.18996
6545 2 2.538015 31.392988 79.319718
6546 5 1.588945 31.095409 79.131993
6547 2 44.941918 25.848808 80.14652
6548 2 46.390895 25.756617 79.436687
6549 5 45.839084 26.258291 80.121051
6550 2 18.499961 33.366656 77.599166
6551 2 19.237779 33.522459 76.169744
6552 5 18.960363 32.863583 76.886299
6553 2 58.935952 19.315369 79.70174
6554 2 59.716974 19.456767 78.293938
6555 5 58.974821 19.838826 78.866448
6556 2 56.309296 30.242308 73.144336
6557 2 56.388423 31.547698 74.093857
6558 5 55.765409 30.948225 73.567537
6559 2 22.971223 16.382612 69.209838
6560 2 22.16273 15.155736 69.882899
6561 5 22.436709 16.123383 69.997447
6562 2 20.269483 25.657209 72.446474
6563 2 20.751336 24.973427 71.063666
6564 5 20.317841 24.799413 71.961624
6565 2 26.977967 16.453061 69.972046
6566 2 28.357592 16.265813 69.151394
6567 5 27.481134 15.825342 69.401063
6568 2 44.633711 19.038772 74.179747
6569 2 43.490625 18.260792 73.34309
6570 5 43.919556 18.362266 74.254269
6571 2 16.912802 30.885641 74.823085
6572 2 15.306816 30.819617 74.654719
6573 5 16.128897 31.389168 74.498764
6574 2 60.710898 18.802269 67.963287
6575 2 62.156896 18.63508 68.665452
6576 5 61.394161 18.139244 68.221708
6577 2 52.499873 1.001039 70.554877
6578 2 52.954967 1.466433 72.034131
6579 5 52.205772 1.498716 71.354284
6580 2 43.056945 14.719485 69.361575
6581 2 42.644068 16.267598 69.573178
6582 5 43.383377 15.58759 69.697831
6583 2 12.657806 15.550874 67.906921
6584 2 13.284636 16.989826 68.292146
6585 5 12.436309 16.504433 68.028967
6586 2 38.773833 31.963294 63.820439
6587 2 39.719767 30.66942 64.027791
6588 5 39.580452 31.638123 64.286121
6589 2 47.677342 34.376509 75.63354
6590 2 46.932716 34.294498 77.065567
6591 5 47.354804 33.750034 76.323996
6592 2 23.320394 27.081912 75.235715
6593 2 22.540525 27.569204 73.906712
6594 5 22.97672 27.878529 74.766119
6595 2 12.929234 23.716517 70.188187
6596 2 13.282749 22.231522 70.718952
6597 5 13.228227 23.208204 70.979042
6598 2 52.951775 25.578514 78.299669
6599 2 53.046073 24.710385 76.939758
6600 5 53.558445 25.023444 77.754618
6601 2 52.777631 13.08399 72.595995
6602 2 52.197028 13.390987 74.072663
6603 5 52.998684 13.050665 73.556858
6604 2 9.883182 30.376335 67.488521
6605 2 8.656378 30.623744 66.465956
6606 5 9.168993 31.012705 67.247278
6607 2 14.297531 23.52016 63.113204
6608 2 15.532176 24.072659 63.997677
6609 5 14.534911 24.143817 63.839795
6610 2 24.444477 32.053385 79.507186
6611 2 24.987091 33.545866 79.807125
6612 5 24.213831 33.009774 79.434027
6613 2 7.451482 19.689064 62.657304
6614 2 8.535413 20.131744 63.771316
6615 5 7.987282 19.358224 63.416708
6616 2 15.30475 13.776044 75.179496
6617 2 15.862705 13.278725 73.746578
6618 5 15.471742 12.974445 74.629238
6619 2 61.682906 20.773926 68.890382
6620 2 61.415034 21.170816 70.433955
6621 5 61.463284 20.40202 69.777334
6622 2 15.174017 8.391401 80.142683
6623 2 16.088951 7.518367 79.1364
6624 5 15.147404 7.661949 79.479039
6625 2 21.757786 21.034527 75.066174
6626 2 22.122188 21.545945 73.577027
6627 5 22.459172 21.473167 74.528696
6628 2 53.337104 24.28037 73.10555
6629 2 54.12229 24.591811 71.727732
6630 5 53.60459 23.889129 72.240326
6631 2 37.711809 30.030623 68.851756
6632 2 38.428321 29.879669 70.292492
6633 5 37.661215 30.314242 69.795277
6634 2 10.079773 11.432744 77.629413
6635 2 8.56341 11.113264 78.088186
6636 5 9.189076 11.837023 77.757667
6637 2 33.247751 17.845894 68.836889
6638 2 32.004522 16.904599 69.261439
6639 5 32.984778 16.910822 69.009273
6640 2 17.086281 27.467694 72.101645
6641 2 16.134182 28.534697 71.348713
6642 5 16.474793 28.227313 72.250947
6643 2 9.482957 12.860874 66.914259
6644 2 8.383053 13.270155 68.025383
6645 5 9.223223 12.731332 67.857121
6646 2 32.523175 30.035417 68.047955
6647 2 32.980549 29.498552 69.50208
6648 5 32.89164 30.320177 68.917654
6649 2 23.912238 31.556759 72.242011
6650 2 23.827494 32.581168 70.994894
6651 5 23.907965 32.513535 72.00161
6652 2 34.425507 9.385016 63.271079
6653 2 34.07662 10.039027 64.7072
6654 5 33.898674 10.092874 63.712231
6655 2 12.29119 15.441114 63.488975
6656 2 11.405054 15.257638 62.149947
6657 5 11.943907 15.916698 62.697492
6658 2 20.882735 25.388372 77.093927
6659 2 20.773059 23.794724 77.339184
6660 5 20.775613 24.69984 77.792268
6661 2 1.182666 11.694287 65.206736
6662 2 1.568611 11.279909 63.693054
6663 5 1.156392 10.952049 64.55741
6664 2 16.574353 13.34583 71.124574
6665 2 15.861841 12.381596 70.040843
6666 5 15.812711 13.281882 70.500842
6667 2 13.276905 15.499941 78.529846
6668 2 11.889121 15.425496 79.354715
6669 5 12.793343 14.990288 79.222415
6670 2 53.06162 16.39557 73.004143
6671 2 52.423058 15.203266 72.119527
6672 5 52.530705 15.565861 73.05839
6673 2 4.528837 11.034714 66.624746
6674 2 4.029677 12.23972 65.670442
6675 5 4.599491 12.007091 66.474011
6676 2 3.423552 28.976685 76.723046
6677 2 3.889111 28.824958 78.263218
6678 5 4.184633 28.729195 77.299878
6679 2 6.517406 16.254029 78.653923
6680 2 5.960017 17.595286 77.945234
6681 5 5.73703 16.855008 78.598527
6682 2 16.504446 9.870069 79.20649
6683 2 17.139774 10.812686 78.057697
6684 5 16.886056 9.86243 78.296794
6685 2 24.086303 25.444116 70.649938
6686 2 25.684173 25.204675 70.612872
6687 5 24.841446 25.228849 70.052736
6688 2 54.830751 19.638456 75.89984
6689 2 55.910598 18.438948 75.98354
6690 5 55.063958 18.755078 75.527701
6691 2 39.118073 11.697277 70.238604
6692 2 40.486602 10.837748 70.25396
6693 5 39.685089 11.100814 69.694585
6694 2 38.486996 33.591999 74.003409
6695 2 39.694356 33.274838 75.029852
6696 5 39.45578 33.709874 74.14761
6697 2 57.779923 8.36614 78.521262
6698 2 57.485182 8.935645 80.004733
6699 5 57.421019 8.121337 79.406977
6700 2 11.497896 11.8675 63.698091
6701 2 12.008611 11.292787 62.276553
6702 5 11.977691 11.117621 63.272991
6703 2 28.078437 19.974036 63.48533
6704 2 27.391972 18.719548 64.238271
6705 5 28.078117 19.458444 64.326397
6706 2 26.211686 19.16299 78.782346
6707 2 26.736923 18.617736 77.354509
6708 5 26.841133 18.533108 78.357756
6709 2 61.024838 27.987379 76.593153
6710 2 59.429823 27.727474 76.576702
6711 5 60.164271 28.361828 76.289111
6712 2 62.180241 0.992562 79.925164
6713 2 61.82329 1.437965 78.413179
6714 5 62.177026 1.759948 79.305213
6715 2 41.207864 34.009263 71.203725
6716 2 42.140411 33.021773 70.327874
6717 5 41.226118 33.134945 70.747143
6718 2 18.329441 29.736653 72.31169
6719 2 18.039443 29.278565 73.834172
6720 5 18.432975 28.989522 72.947541
6721 2 34.523565 24.362063 75.009491
6722 2 33.279207 25.125596 74.316318
6723 5 33.607179 24.690554 75.169372
6724 2 25.154944 26.115795 77.091978
6725 2 25.668254 27.042034 75.871122
6726 5 25.734143 26.882483 76.868483
6727 2 48.068562 8.476397 77.516367
6728 2 46.532065 8.729132 77.083703
6729 5 47.457219 8.500695 76.74248
6730 2 51.222873 13.293275 64.904644
6731 2 51.082295 13.5516 63.315493
6732 5 50.576626 13.509487 64.191308
6733 2 28.258714 35.414737 73.495023
6734 2 29.243235 34.201885 73.080772
6735 5 28.98432 35.15905 72.877487
6736 2 50.685846 16.707799 75.183069
6737 2 50.887456 16.922392 76.772156
6738 5 50.972752 16.258305 76.013051
6739 2 57.126535 6.733767 71.370617
6740 2 57.111364 6.053686 72.836617
6741 5 57.654354 6.177704 71.991449
6742 2 47.334033 6.18289 66.809942
6743 2 48.225565 6.278034 65.465317
6744 5 47.282007 6.209072 65.825138
6745 2 49.459362 30.184842 64.72305
6746 2 49.113682 29.892273 66.274437
6747 5 48.985651 29.563778 65.325635
6748 2 13.173429 1.001254 63.327395
6749 2 12.439134 1.332364 64.728492
6750 5 12.289773 1.097719 63.755271
6751 2 1.318491 20.972787 79.270283
6752 2 1.281446 22.296213 78.343424
6753 5 1.240326 21.955879 79.295794
6754 2 38.467084 33.940788 76.724788
6755 2 38.513479 35.103574 75.603329
6756 5 38.902712 34.792664 76.484441
6757 2 27.629536 16.263714 75.803536
6758 2 27.628113 16.027524 77.402319
6759 5 28.198905 16.005613 76.566709
6760 2 55.033603 22.638057 75.328753
6761 2 55.512772 21.640544 76.506573
6762 5 54.777035 21.833504 75.838752
6763 2 20.967022 33.226618 71.445206
6764 2 21.704769 32.985809 72.862822
6765 5 21.842266 33.26254 71.898954
6766 2 20.691355 11.966453 68.725834
6767 2 19.883625 11.044073 69.778775
6768 5 20.802556 11.361545 69.497165
6769 2 2.346438 7.581555 67.793338
6770 2 2.568144 7.910365 66.226613
6771 5 1.923078 7.991853 67.002356
6772 2 49.240635 3.115717 78.536846
6773 2 49.037253 3.324828 80.126438
6774 5 49.212942 2.640968 79.401182
6775 2 4.942384 15.860005 63.752955
6776 2 4.764661 15.843368 62.146706
6777 5 5.201171 16.325285 62.922428
6778 2 14.980173 20.473114 74.804038
6779 2 14.195172 20.375893 76.21337
6780 5 14.159094 20.132183 75.231621
6781 2 23.214689 8.061728 72.791452
6782 2 24.80997 7.849687 72.64309
6783 5 24.041199 8.479678 72.451702
6784 2 38.571111 13.616041 66.84414
6785 2 39.149795 14.066975 68.284168
6786 5 39.356836 13.552682 67.437313
6787 2 2.679505 33.515153 73.044255
6788 2 2.150457 33.916944 74.51754
6789 5 1.903567 33.456444 73.650641
6790 2 58.609767 31.456955 63.756784
6791 2 59.631865 32.609739 63.268623
6792 5 59.337627 31.652689 63.120278
6793 2 36.475325 24.906011 79.181222
6794 2 37.002598 26.123183 80.104461
6795 5 37.101255 25.668141 79.205722
6796 2 1.86561 22.733795 63.677508
6797 2 3.450534 22.43589 63.783166
6798 5 2.539521 22.188481 64.148367
6799 2 6.337548 25.638817 77.385744
6800 2 7.016308 25.656881 78.852323
6801 5 6.744969 26.229333 78.062892
6802 2 61.823043 16.751333 65.052934
6803 2 62.135752 16.803878 66.637657
6804 5 62.160683 17.332664 65.774934
6805 2 34.826994 8.374704 77.95441
6806 2 35.914737 9.499845 77.550965
6807 5 35.69133 8.513951 77.499696
6808 2 39.336633 6.300452 78.435949
6809 2 38.271074 5.851952 77.306646
6810 5 38.703874 5.587276 78.182521
6811 2 49.828869 23.765711 69.394799
6812 2 48.589275 24.050843 68.397803
6813 5 49.596786 23.975464 68.459186
6814 2 4.007105 34.620724 71.627496
6815 2 4.03428 35.401219 70.212581
6816 5 4.476591 35.324297 71.119759
6817 2 55.596746 30.863734 70.228432
6818 2 54.327227 31.383122 71.083097
6819 5 55.116492 30.749414 71.082551
6820 2 1.715663 31.630984 70.377504
6821 2 1.409379 31.857852 68.806958
6822 5 1.173094 32.158106 69.744265
6823 2 55.310077 30.660921 76.379401
6824 2 54.709879 32.084396 75.904662
6825 5 54.78073 31.101595 75.673123
6826 2 11.412209 6.172634 80.137184
6827 2 12.300624 5.53597 78.946692
6828 5 11.356612 5.701384 79.272278
6829 2 62.058914 13.554638 72.702735
6830 2 61.552851 13.301539 71.188886
6831 5 62.156665 12.9565 71.924335
6832 2 47.217547 25.504397 71.809994
6833 2 47.394558 24.838589 70.348056
6834 5 47.818074 25.456473 71.028777
6835 2 20.541822 25.535121 63.577308
6836 2 21.549699 26.455144 64.443123
6837 5 20.973704 25.622993 64.45991
6838 2 6.970686 2.148829 70.015114
6839 2 7.770112 1.000064 69.206937
6840 5 7.53163 1.983663 69.220575
6841 2 15.04548 9.136729 73.878649
6842 2 14.112346 8.695834 72.634958
6843 5 14.213075 9.355142 73.396334
6844 2 41.599411 29.425944 79.469884
6845 2 40.910881 29.323447 78.011352
6846 5 41.022914 29.907532 78.830388
6847 2 57.195084 4.402337 68.35381
6848 2 56.667577 2.910437 68.025381
6849 5 56.497034 3.741882 68.57687
6850 2 57.954741 25.421687 74.709322
6851 2 57.244864 26.540982 75.634066
6852 5 57.15325 25.99132 74.789077
6853 2 59.55045 12.537402 69.380473
6854 2 58.139058 12.966527 70.040564
6855 5 59.090744 13.263299 69.865215
6856 2 17.214986 17.347385 71.258702
6857 2 17.664903 15.834294 71.605146
6858 5 16.993267 16.56233 71.813463
6859 2 44.010163 30.928639 79.878751
6860 2 44.592968 29.444558 80.142829
6861 5 44.843203 30.403297 79.936122
6862 2 22.408266 24.898913 75.346013
6863 2 21.783936 23.408369 75.326327
6864 5 22.633716 23.947241 75.216697
6865 2 6.118516 20.929791 78.558818
6866 2 7.029426 20.245392 77.412634
6867 5 7.047546 20.820225 78.24556
6868 2 39.562782 16.333254 76.001702
6869 2 38.953893 16.522568 77.486731
6870 5 38.726209 16.308593 76.523974
6871 2 42.506168 8.949496 69.535205
6872 2 42.183136 8.909258 67.952193
6873 5 41.783279 8.815779 68.877343
6874 2 6.22657 23.464192 77.707135
6875 2 4.722799 23.238345 77.159815
6876 5 5.427293 22.893354 77.799499
6877 2 3.131999 14.171284 71.550051
6878 2 2.798579 14.635404 70.038324
6879 5 3.224336 14.91804 70.912038
6880 2 25.751409 1.022869 76.878079
6881 2 24.53801 1.006882 77.94546
6882 5 24.90691 1.469486 77.124219
6883 2 52.368875 18.130376 75.678426
6884 2 52.327338 18.180128 74.063591
6885 5 52.936232 18.151654 74.871652
6886 2 54.987246 26.906022 70.447047
6887 2 53.38001 26.94101 70.61277
6888 5 54.17421 26.348845 70.40513
6889 2 37.472218 13.27391 63.543205
6890 2 36.737189 13.646648 64.933419
6891 5 37.635481 13.518936 64.484767
6892 2 22.946443 18.004494 77.944808
6893 2 23.423662 17.794999 79.474602
6894 5 23.64326 18.251175 78.598127
6895 2 35.287674 32.294022 72.226814
6896 2 35.361894 33.730789 71.490548
6897 5 35.574016 33.230697 72.344621
6898 2 9.152539 23.69497 67.886588
6899 2 7.779835 23.879329 67.053766
6900 5 8.218246 24.00366 67.957572
6901 2 58.374643 20.495418 69.225921
6902 2 59.286897 19.283803 69.784203
6903 5 59.184254 19.96299 69.040768
6904 2 14.240716 32.998968 69.705865
6905 2 13.556985 33.402662 71.113501
6906 5 13.503932 32.773884 70.322078
6907 2 30.072151 22.572799 71.904393
6908 2 29.131248 23.878953 72.047782
6909 5 29.786926 23.278664 72.531794
6910 2 30.603905 13.797213 65.428197
6911 2 30.231818 14.432291 63.989405
6912 5 30.791605 14.554045 64.823876
6913 2 51.446225 19.248811 78.599233
6914 2 51.93179 19.325863 80.138774
6915 5 51.710804 18.699633 79.374883
6916 2 16.384936 12.00862 76.379067
6917 2 17.400191 13.058416 75.68691
6918 5 17.179952 12.076852 75.79896
6919 2 52.540258 27.889924 68.170201
6920 2 51.659239 27.067667 69.247046
6921 5 52.117857 27.015949 68.346201
6922 2 10.645958 6.173874 67.372778
6923 2 10.73615 5.020276 68.501038
6924 5 10.386544 5.24445 67.577973
6925 2 42.833729 11.964881 75.749721
6926 2 42.891206 11.312876 74.27206
6927 5 42.392715 11.31477 75.152986
6928 2 12.753723 12.945193 80.176256
6929 2 13.316091 12.23096 78.840026
6930 5 12.557002 12.779598 79.223833
6931 2 59.330052 29.028044 71.160497
6932 2 59.033982 29.851589 69.801817
6933 5 59.525168 29.871018 70.686625
6934 2 39.608872 23.842611 76.619978
6935 2 38.423842 24.433625 75.693533
6936 5 39.213093 24.678988 76.277833
6937 2 40.904776 15.257151 67.695971
6938 2 41.891032 16.354237 67.035973
6939 5 41.845135 15.552085 67.651581
6940 2 37.252848 11.316167 78.737792
6941 2 37.853794 10.706196 80.108447
6942 5 37.809435 10.588657 79.104084
6943 2 60.185519 32.961935 77.513271
6944 2 59.31445 34.080837 76.737905
6945 5 59.946471 33.299423 76.617621
6946 2 51.79802 3.161858 69.228982
6947 2 51.718045 1.672053 68.607708
6948 5 51.981572 2.630771 68.418127
6949 2 14.539991 28.681755 69.747853
6950 2 14.354227 27.13156 69.330384
6951 5 14.485784 27.765186 70.108675
6952 2 11.024126 17.089984 72.639197
6953 2 10.735168 16.734172 71.089424
6954 5 10.846766 16.345103 72.017162
6955 2 2.040255 24.443448 79.944184
6956 2 1.079872 24.759779 78.683433
6957 5 1.743484 25.160033 79.334542
6958 2 23.601016 11.430141 66.175218
6959 2 23.040153 10.575064 67.426686
6960 5 23.772436 10.632814 66.7303
6961 2 14.598162 26.698699 78.602602
6962 2 13.58236 25.446407 78.493933
6963 5 13.646702 26.443499 78.655785
6964 2 32.479705 20.527768 65.369419
6965 2 31.841036 20.371405 66.845748
6966 5 32.380192 20.978451 66.241321
6967 2 18.662849 33.366813 63.483633
6968 2 20.136343 32.776973 63.788267
6969 5 19.623489 33.504401 63.306231
6970 2 0.998304 12.070204 78.019187
6971 2 1.391055 12.466364 79.535993
6972 5 0.999177 12.812288 78.669219
6973 2 5.744099 6.019217 78.516782
6974 2 5.851672 6.61205 80.016406
6975 5 5.281889 6.584339 79.18028
6976 2 20.016289 31.657193 70.233172
6977 2 19.437936 33.120567 69.864474
6978 5 20.101668 32.405213 69.59567
6979 2 61.288892 22.322099 67.377889
6980 2 62.159584 22.798199 66.102302
6981 5 61.232503 22.784625 66.508337
6982 2 49.138162 13.178874 70.847267
6983 2 50.348233 13.964149 71.575942
6984 5 50.120609 13.22297 70.925274
6985 2 25.87772 27.883099 80.132516
6986 2 26.531459 27.976148 78.657435
6987 5 25.897388 27.450728 79.246006
6988 2 19.426947 35.406304 69.413995
6989 2 19.875728 34.488721 68.161584
6990 5 20.205127 34.97957 68.983223
6991 2 12.84409 35.404582 70.260474
6992 2 12.105169 34.659542 69.031325
6993 5 12.991897 34.792642 69.500926
6994 2 51.942741 11.576072 75.292399
6995 2 53.439473 12.134029 75.538107
6996 5 52.625741 11.732732 75.986804
6997 2 5.35502 34.136033 73.701782
6998 2 4.693812 35.414816 74.436229
6999 5 4.587458 34.425668 74.24968
7000 2 22.635782 5.810889 75.317627
7001 2 23.133867 4.376859 75.872031
7002 5 22.652703 5.233012 76.117003
7003 2 24.345464 0.996934 73.923367
7004 2 25.115658 1.938005 74.98783
7005 5 24.680631 1.912427 74.074252
7006 2 12.884453 7.520226 66.743245
7007 2 13.912253 7.262533 67.963539
7008 5 13.192402 6.841682 67.389755
7009 2 31.971954 2.140044 67.374353
7010 2 32.978051 3.404162 67.333501
7011 5 32.442784 2.796417 67.940677
7012 2 6.87244 32.653442 66.228717
7013 2 6.37885 32.326923 67.732595
7014 5 6.981008 32.021549 66.978487
7015 2 15.470839 16.887742 68.504563
7016 2 17.070201 17.096283 68.402352
7017 5 16.171255 17.468469 68.123244
7018 2 21.250584 34.671907 64.215367
7019 2 21.986415 34.455991 62.792753
7020 5 21.893681 34.098326 63.735093
7021 2 27.547249 1.432491 79.117835
7022 2 27.282302 3.009844 79.349476
7023 5 27.74821 2.189913 79.717132
7024 2 25.756986 12.797854 73.983034
7025 2 26.017113 13.3987 72.505464
7026 5 26.46333 13.018708 73.330706
7027 2 21.944836 14.324519 78.901828
7028 2 22.797122 14.904948 80.146257
7029 5 21.863185 14.729431 79.797713
7030 2 8.557582 27.89033 62.625886
7031 2 9.656973 28.841071 63.332516
7032 5 9.460606 28.272701 62.518316
7033 2 26.135868 13.880096 66.400497
7034 2 26.12657 14.449959 64.888192
7035 5 26.644401 14.429061 65.757641
7036 2 18.840868 34.786403 72.663971
7037 2 19.712353 34.026757 73.793284
7038 5 19.731064 34.406695 72.855295
7039 2 2.020005 33.378466 78.518147
7040 2 1.002393 33.527035 79.764858
7041 5 1.143383 33.74311 78.786104
7042 2 47.497717 31.516336 65.674061
7043 2 45.99571 31.627091 66.260239
7044 5 46.708595 30.985616 65.936461
7045 2 28.528074 0.999205 68.480401
7046 2 29.45031 1.413725 69.741174
7047 5 29.270568 1.585515 68.759997
7048 2 32.022332 35.405926 73.120261
7049 2 32.862079 34.026802 73.189086
7050 5 32.832823 34.954357 72.784967
7051 2 62.159792 2.11337 69.846072
7052 2 60.661386 2.318745 69.276424
7053 5 61.339312 2.651068 69.950594
7054 2 58.422168 13.812492 65.703887
7055 2 57.312295 12.638034 65.676917
7056 5 57.57085 13.517645 66.105825
7057 2 47.264773 33.330563 70.859174
7058 2 45.935968 32.905556 70.043367
7059 5 46.39182 33.660834 70.539634
7060 2 26.505319 8.199318 68.776487
7061 2 25.73156 8.78733 67.485195
7062 5 25.696262 8.686745 68.491755
7063 2 11.195296 12.304202 68.903932
7064 2 12.169956 13.586446 68.770578
7065 5 11.214523 13.264781 68.679989
7066 2 8.986639 31.032951 69.442416
7067 2 8.202487 29.745591 70.025257
7068 5 8.259851 30.755869 70.049239
7069 2 20.80152 24.955135 80.114027
7070 2 22.265569 24.270993 80.093876
7071 5 21.710461 25.039869 79.740024
7072 2 53.240369 9.193187 66.266161
7073 2 53.201437 9.71693 67.794583
7074 5 52.722892 9.740825 66.902983
7075 2 12.90286 29.863223 63.566065
7076 2 13.18143 29.048838 62.198194
7077 5 13.454145 29.853738 62.748003
7078 2 19.10764 9.086625 75.001319
7079 2 20.243768 8.537425 73.991622
7080 5 19.971122 9.313416 74.581562
7081 2 50.505339 6.245279 71.61108
7082 2 51.413701 6.551686 70.30997
7083 5 51.237541 5.88876 71.054298
7084 2 28.231223 3.968289 64.228515
7085 2 28.496224 2.974313 65.474983
7086 5 28.939874 3.570747 64.787984
7087 2 23.326325 12.336096 69.468858
7088 2 24.184551 13.533535 70.133299
7089 5 23.330657 13.307851 69.638873
7090 2 26.272167 22.437632 78.162066
7091 2 25.642857 22.624569 79.63886
7092 5 26.485404 22.713272 79.084988
7093 2 23.615841 19.839011 76.235198
7094 2 24.609166 20.101165 74.987609
7095 5 24.062695 20.54714 75.713559
7096 2 21.54345 27.737459 71.953333
7097 2 22.433426 26.863065 70.926068
7098 5 21.493319 27.04126 71.256178
7099 2 12.947654 29.796232 65.867542
7100 2 11.475778 29.130377 65.913514
7101 5 12.412755 29.03344 65.543102
7102 2 49.462381 27.66546 63.572405
7103 2 48.475227 27.480136 64.838532
7104 5 48.53715 27.43897 63.829078
7105 2 4.299482 33.453747 69.03677
7106 2 5.206808 33.242475 70.357383
7107 5 5.17972 33.655711 69.433788
7108 2 50.021869 14.905876 78.250859
7109 2 49.333292 15.026913 76.79377
7110 5 49.477818 15.497089 77.678402
7111 2 42.695329 28.979025 69.058854
7112 2 43.26947 27.505695 69.392854
7113 5 43.081788 28.168168 68.650943
7114 2 17.048617 9.835059 74.486592
7115 2 16.833181 9.88693 76.087465
7116 5 16.898207 9.274416 75.284268
7117 2 11.810673 18.252601 77.69034
7118 2 13.298052 18.877891 77.783149
7119 5 12.504778 18.555204 78.322702
7120 2 54.773659 12.331999 70.396953
7121 2 56.220409 11.915989 69.808952
7122 5 55.643897 11.936371 70.640664
7123 2 53.442933 27.043626 80.114477
7124 2 54.934485 27.663714 80.166033
7125 5 54.20379 27.324858 79.553018
7126 2 47.431447 15.4511 75.744792
7127 2 48.51741 16.627364 75.523471
7128 5 47.682056 16.361764 76.029602
7129 2 28.257352 13.91542 77.441051
7130 2 29.017466 14.045401 76.02076
7131 5 28.360351 13.491996 76.55599
7132 2 45.717598 30.631645 76.630991
7133 2 47.032435 31.562953 76.50543
7134 5 46.070579 31.451359 76.210629
7135 2 40.838647 22.551986 70.664138
7136 2 41.255596 22.354252 72.212992
7137 5 40.923338 23.021109 71.52784
7138 2 18.705768 16.69748 78.357004
7139 2 19.7133 15.457899 78.111616
7140 5 18.78712 15.817585 77.91837
7141 2 12.714399 2.381778 70.871915
7142 2 13.192518 3.019751 72.27772
7143 5 12.413988 2.926443 71.637632
7144 2 14.657258 6.35561 69.825783
7145 2 14.623842 6.734278 71.396575
7146 5 14.263404 6.977518 70.482548
7147 2 24.785337 15.86051 66.870861
7148 2 24.999413 15.613994 68.453674
7149 5 25.459573 15.627331 67.552229
7150 2 4.445172 32.99353 66.888309
7151 2 4.940726 31.600147 66.236538
7152 5 4.346358 32.013542 66.943898
7153 2 40.313027 32.058234 76.913861
7154 2 40.432343 32.40082 78.488756
7155 5 40.081681 32.730112 77.598177
7156 2 28.861292 23.751983 74.636412
7157 2 27.552708 23.872797 73.695716
7158 5 27.931838 24.081657 74.610683
7159 2 1.494473 4.994572 70.538441
7160 2 1.363406 5.391468 68.977291
7161 5 2.016103 5.211898 69.729799
7162 2 34.371454 9.342857 80.15541
7163 2 35.772377 9.999888 79.688913
7164 5 35.315577 9.137187 79.956509
7165 2 23.812317 34.23527 68.165815
7166 2 22.869888 34.078683 69.46935
7167 5 23.484568 33.586818 68.833139
7168 2 27.743131 17.792398 67.689894
7169 2 28.787031 18.290033 66.560944
7170 5 28.455791 17.486709 67.080057
7171 2 23.648364 9.916905 64.578153
7172 2 23.177926 10.209948 63.060026
7173 5 23.4419 10.638676 63.938114
7174 2 44.359838 21.785998 64.835467
7175 2 44.815542 21.008089 63.494167
7176 5 44.576839 20.895196 64.471307
7177 2 18.177277 24.86173 69.674425
7178 2 18.273274 25.917307 70.894441
7179 5 17.644362 25.333687 70.357426
7180 2 57.546102 9.621111 66.955251
7181 2 58.571072 9.512465 65.710451
7182 5 58.169505 9.011913 66.493215
7183 2 26.352272 15.563254 72.486889
7184 2 25.907288 15.055034 73.955085
7185 5 26.599718 15.585523 73.441617
7186 2 53.82289 11.882314 65.95063
7187 2 53.203412 12.372821 64.540827
7188 5 53.172822 12.503119 65.544129
7189 2 50.884423 9.094157 72.054871
7190 2 50.277689 8.744994 70.598213
7191 5 50.906344 8.429583 71.326111
7192 2 46.85165 1.520715 79.878936
7193 2 47.455455 1.641211 78.384682
7194 5 47.075732 2.163014 79.164464
7195 2 8.516788 20.721142 71.074132
7196 2 8.86562 21.100583 72.605875
7197 5 8.547867 21.468039 71.717879
7198 2 31.468891 31.10697 74.535304
7199 2 30.612402 30.623009 73.253078
7200 5 30.673887 31.314798 73.989403
7201 2 36.427314 1.935767 75.697212
7202 2 37.747165 1.006288 75.774405
7203 5 36.956157 1.267956 75.199632
7204 2 34.755041 12.134941 75.594744
7205 2 35.067471 13.717387 75.493992
7206 5 35.200209 12.820987 75.04302
7207 2 47.761629 3.403083 66.560383
7208 2 48.129922 4.313755 67.843711
7209 5 48.50866 3.703786 67.130253
7210 2 44.757574 16.328363 74.256591
7211 2 43.961052 16.169158 72.859415
7212 5 44.25179 15.68862 73.701485
7213 2 19.818649 19.324043 78.958131
7214 2 19.236041 18.284607 80.049934
7215 5 19.069803 18.71012 79.146701
7216 2 25.16256 27.023921 71.734552
7217 2 23.890261 27.902562 72.204808
7218 5 24.657703 27.850441 71.546899
7219 2 36.952493 31.425479 66.625621
7220 2 36.31619 32.782465 67.230273
7221 5 36.739225 31.893966 67.467207
7222 2 25.906974 22.79545 75.939438
7223 2 24.477698 22.645742 75.200078
7224 5 25.480727 22.631855 75.06492
7225 2 18.956091 27.032806 67.0902
7226 2 18.176979 27.357185 65.711919
7227 5 18.654168 27.767239 66.504809
7228 2 50.686467 16.593306 68.363525
7229 2 51.821648 17.191078 67.380709
7230 5 50.85239 17.267081 67.662292
7231 2 14.12775 1.03513 69.859828
7232 2 14.75557 2.510412 70.063006
7233 5 14.472398 1.822898 69.376227
7234 2 25.051624 28.606949 65.518109
7235 2 25.917434 27.904184 66.687891
7236 5 24.988077 28.01025 66.301144
7237 2 12.679619 25.694465 69.173379
7238 2 11.90608 26.88381 69.947325
7239 5 11.799055 25.972098 69.520882
7240 2 11.183236 5.047493 77.068887
7241 2 10.12554 3.842789 77.2735
7242 5 10.351717 4.794012 77.535314
7243 2 59.058909 5.631747 68.287291
7244 2 60.539916 5.623056 68.934158
7245 5 59.862682 6.184687 68.433707
7246 2 56.234141 23.611506 77.164417
7247 2 55.665183 25.123827 77.131762
7248 5 55.779804 24.274812 76.592724
7249 2 36.986095 13.137892 73.330855
7250 2 35.45435 13.193428 72.818441
7251 5 36.205639 12.57847 73.104655
7252 2 46.901337 11.400563 77.373068
7253 2 47.165998 11.63447 78.950134
7254 5 46.830084 10.974589 78.260028
7255 2 41.845004 10.856444 63.389736
7256 2 41.788428 11.123473 64.982655
7257 5 41.499356 11.473119 64.077828
7258 2 50.639466 34.029628 67.759685
7259 2 50.325982 33.946823 69.342963
7260 5 50.253065 33.454246 68.461726
7261 2 13.231999 5.08141 70.914778
7262 2 12.938729 5.056222 69.325674
7263 5 12.675586 5.482006 70.205442
7264 2 32.661938 4.42702 65.374856
7265 2 32.341356 5.977294 65.049632
7266 5 32.923546 5.3528 65.593313
7267 2 62.14955 0.993237 72.300137
7268 2 62.160944 1.627394 73.786613
7269 5 61.57644 1.210329 73.073213
7270 2 6.399324 17.322648 72.967249
7271 2 7.208811 18.124277 74.113556
7272 5 6.600716 18.225257 73.310716
7273 2 4.306025 30.102283 72.711767
7274 2 4.761419 28.962138 71.660777
7275 5 5.063997 29.53201 72.440661
7276 2 5.630362 19.276299 68.458772
7277 2 5.944676 19.524926 70.024431
7278 5 5.514243 19.91955 69.197674
7279 2 39.13654 33.83711 70.482553
7280 2 39.3984 32.41793 69.755055
7281 5 39.149982 33.387546 69.604519
7282 2 50.965944 8.995596 74.249081
7283 2 51.995393 7.868018 74.778892
7284 5 51.461482 8.18612 73.979969
7285 2 13.475021 12.731437 73.744652
7286 2 13.165292 13.963749 74.743336
7287 5 13.557476 13.709316 73.845571
7288 2 50.859574 5.70543 76.900266
7289 2 50.880627 5.359179 75.321798
7290 5 50.307335 5.367431 76.155941
7291 2 12.967592 33.971697 64.723376
7292 2 12.309696 34.793821 65.949418
7293 5 12.188573 34.518484 64.982958
7294 2 47.836134 7.480391 73.369443
7295 2 49.048714 7.929442 72.399959
7296 5 48.723349 7.21004 73.033304
7297 2 46.407866 19.590156 64.332256
7298 2 46.872753 19.872837 62.810459
7299 5 47.141926 19.447759 63.688742
7300 2 54.319405 19.532151 63.704867
7301 2 52.992285 18.90239 63.031035
7302 5 53.493911 19.761866 63.215969
7303 2 21.567061 20.262192 78.020671
7304 2 21.971436 19.486244 79.379451
7305 5 22.329277 20.023119 78.599551
7306 2 10.261025 29.250537 72.971307
7307 2 9.042366 29.041757 71.930549
7308 5 9.296995 29.411792 72.837613
7309 2 52.654668 29.854016 66.794984
7310 2 51.420757 29.974131 65.758195
7311 5 52.303196 30.382334 66.039618
7312 2 32.719993 12.705966 74.98883
7313 2 31.824382 11.816291 75.997917
7314 5 32.189215 12.743443 75.819553
7315 2 11.268361 1.596394 73.287135
7316 2 10.455232 1.291889 74.650217
7317 5 11.233942 1.000781 74.072814
7318 2 52.573877 32.494217 72.562436
7319 2 52.188615 32.941568 74.066878
7320 5 52.010047 33.112237 73.085291
7321 2 59.060381 10.723688 77.402949
7322 2 60.154045 11.88958 77.165273
7323 5 59.592965 11.180912 76.709745
7324 2 15.049245 26.459049 74.663534
7325 2 14.631799 26.887275 73.162116
7326 5 14.734623 27.215562 74.114052
7327 2 7.414153 5.780074 75.135792
7328 2 6.338536 5.0298 74.191317
7329 5 6.733609 5.928676 74.437216
7330 2 40.092517 19.356848 76.162181
7331 2 38.593238 19.107109 75.612919
7332 5 39.494893 18.675648 75.772254
7333 2 2.64919 20.50155 71.751572
7334 2 4.192072 20.78625 71.363813
7335 5 3.405084 20.167954 71.212528
7336 2 37.534652 6.16778 75.260362
7337 2 37.584402 6.012916 73.652432
7338 5 37.131523 5.689091 74.497751
7339 2 59.860188 8.018635 64.739862
7340 2 60.529366 7.662153 63.312621
7341 5 60.716463 7.810831 64.296194
7342 2 20.207715 16.181956 73.103394
7343 2 20.880898 16.394797 71.649633
7344 5 20.125085 15.943896 72.149596
7345 2 34.488953 27.556043 71.467032
7346 2 34.333297 26.660041 72.803014
7347 5 34.914495 26.83864 71.993793
7348 2 15.504841 11.156513 65.915611
7349 2 14.161629 10.295161 65.659194
7350 5 15.172799 10.256957 65.68371
7351 2 29.633334 14.213623 67.358172
7352 2 29.946252 14.776379 68.840495
7353 5 29.213473 14.468739 68.213662
7354 2 45.186439 26.092 64.48503
7355 2 45.839751 24.899538 65.358593
7356 5 44.978999 25.386248 65.142383
7357 2 55.892954 29.724561 78.281266
7358 2 55.336076 29.790094 79.797012
7359 5 56.171902 29.764928 79.22667
7360 2 44.692193 13.40909 76.475268
7361 2 46.270239 13.75498 76.520275
7362 5 45.525218 13.244706 76.97754
7363 2 23.686628 13.31399 74.533582
7364 2 22.327191 13.462735 73.672359
7365 5 22.726 13.528392 74.600351
7366 2 48.006401 9.673659 73.428001
7367 2 48.83214 9.201155 74.734443
7368 5 48.831984 9.833284 73.943911
7369 2 36.902386 3.405555 70.280485
7370 2 37.783575 4.620031 70.880859
7371 5 37.654668 3.616086 70.882962
7372 2 41.626702 34.229785 68.064561
7373 2 40.780191 35.413143 68.768109
7374 5 40.729549 34.473837 68.394389
7375 2 17.197405 29.455231 67.12831
7376 2 16.226417 29.0927 68.36833
7377 5 16.251505 29.369236 67.394972
7378 2 41.774822 12.59644 66.616551
7379 2 42.693038 13.208049 67.797529
7380 5 41.974406 13.422411 67.117718
7381 2 32.820883 7.918677 68.200426
7382 2 33.750277 8.718112 67.147323
7383 5 33.750428 8.188735 68.010044
7384 2 10.574154 26.558421 74.26926
7385 2 11.98922 27.242484 73.893038
7386 5 10.984849 27.318638 73.793202
7387 2 11.82925 3.181512 69.025478
7388 2 10.741968 1.98586 69.036815
7389 5 11.146593 2.726306 68.477758
7390 2 15.469649 35.413439 67.911439
7391 2 15.893631 34.172816 68.85642
7392 5 15.518476 34.428954 67.951887
7393 2 5.005442 1.164537 76.373065
7394 2 5.958586 1.441281 75.097594
7395 5 5.097019 1.006956 75.403522
7396 2 14.945975 4.787432 79.447116
7397 2 14.551934 3.549244 78.486117
7398 5 15.299225 3.968963 79.024559
7399 2 10.070903 8.857475 65.358744
7400 2 10.985339 7.553516 65.633326
7401 5 10.388076 8.013656 64.957992
7402 2 22.559121 11.858461 72.161569
7403 2 23.892838 12.760849 72.298652
7404 5 23.34279 12.194384 71.665334
7405 2 30.748644 14.988144 77.658389
7406 2 30.699297 13.414644 77.292931
7407 5 31.290173 14.23601 77.320348
7408 2 53.391155 32.147473 66.774418
7409 2 52.652102 32.605092 65.411964
7410 5 52.557478 32.535674 66.417327
7411 2 28.186467 31.718606 67.131911
7412 2 28.198952 31.35326 65.557661
7413 5 28.151161 32.110727 66.227353
7414 2 14.646526 12.683759 67.871556
7415 2 13.689778 12.190223 66.666171
7416 5 13.757043 12.809639 67.463872
7417 2 23.089322 6.409153 64.63137
7418 2 23.40424 5.987536 63.103312
7419 5 23.351708 5.651479 64.056639
7420 2 19.958359 24.780679 74.673723
7421 2 18.656964 24.454572 75.574788
7422 5 19.667841 24.414461 75.542466
7423 2 39.02764 21.723578 78.930899
7424 2 37.98015 21.875563 80.152194
7425 5 38.957528 21.763396 79.914124
7426 2 2.984164 31.479523 73.809244
7427 2 3.511138 31.447719 75.33672
7428 5 3.320858 32.046417 74.543069
7429 2 34.309552 25.197817 79.453084
7430 2 34.846148 26.555293 80.146784
7431 5 34.634853 26.109548 79.262933
7432 2 6.416195 16.612554 76.028153
7433 2 6.632186 15.872639 74.607671
7434 5 6.058009 16.536248 75.112123
7435 2 50.139674 20.062808 74.618216
7436 2 50.267436 20.612717 76.132538
7437 5 49.730434 20.672898 75.276656
7438 2 18.826189 1.126287 77.995724
7439 2 17.895857 0.976078 79.308665
7440 5 18.686046 1.467695 78.910618
7441 2 57.719774 21.804407 65.090771
7442 2 57.22179 21.247863 66.524007
7443 5 57.802064 21.048273 65.719039
7444 2 36.522432 20.885774 78.838781
7445 2 35.589079 21.156903 80.129997
7446 5 36.175119 20.474691 79.665592
7447 2 15.03609 28.895119 65.619164
7448 2 16.160884 29.887846 65.018142
7449 5 15.955497 28.927426 65.262964
7450 2 42.972639 7.173641 76.410077
7451 2 41.625478 7.660741 75.661887
7452 5 42.4596 7.972796 76.142917
7453 2 53.000483 5.960704 75.233656
7454 2 54.395251 5.900944 76.047872
7455 5 53.649523 6.50942 75.734544
7456 2 0.985251 26.313191 64.218581
7457 2 0.989037 24.733512 63.877266
7458 5 1.062703 25.415902 64.621204
7459 2 61.321914 30.496944 74.32166
7460 2 59.884172 30.218919 75.005396
7461 5 60.483137 29.987075 74.223082
7462 2 52.777441 11.398178 78.182387
7463 2 52.857726 11.691785 79.7696
7464 5 52.734987 12.115315 78.85851
7465 2 35.740754 24.464676 70.181231
7466 2 35.027317 25.872627 69.833989
7467 5 35.827941 25.442418 70.279464
7468 2 39.093576 16.477093 67.963746
7469 2 39.484213 16.415024 69.530733
7470 5 39.585072 16.949295 68.676971
7471 2 22.854948 33.348105 77.691271
7472 2 22.05259 32.920236 79.027327
7473 5 22.024584 33.5037 78.2007
7474 2 19.021995 14.362518 80.143263
7475 2 19.521171 15.898813 80.193432
7476 5 18.725014 15.296155 80.027705
7477 2 46.889169 29.488737 67.994838
7478 2 48.099538 30.012844 68.928762
7479 5 47.733619 29.99868 67.985136
7480 2 55.113067 9.386657 80.147606
7481 2 54.609311 7.968099 79.559542
7482 5 55.300895 8.700936 79.463691
7483 2 53.335139 2.857217 75.184172
7484 2 54.347292 1.601835 75.291224
7485 5 54.28429 2.596864 75.116647
7486 2 13.310916 1.860003 74.275861
7487 2 14.700871 1.229097 74.806781
7488 5 14.201855 1.550304 73.98682
7489 2 3.24263 21.237086 73.744197
7490 2 3.990268 20.372848 74.887012
7491 5 3.162945 20.430587 74.306728
7492 2 21.591486 17.674134 74.499366
7493 2 21.846244 18.24698 75.988943
7494 5 21.136111 18.006403 75.308972
7495 2 17.438083 15.414648 62.391738
7496 2 18.210958 16.827695 62.258105
7497 5 17.31636 16.392233 62.444099
7498 2 20.941441 23.44202 64.173222
7499 2 21.682224 22.821726 65.468742
7500 5 20.866112 23.328776 65.150326
7501 2 26.39166 14.267659 75.953927
7502 2 26.03143 14.514646 77.509924
7503 5 25.863677 14.834836 76.56448
7504 2 18.702941 18.237112 74.404869
7505 2 18.74374 17.170366 75.618246
7506 5 19.076668 17.367489 74.682924
7507 2 41.199023 2.15564 76.761757
7508 2 41.286461 3.23196 75.559349
7509 5 41.784805 2.830258 76.343451
7510 2 17.501814 16.051931 73.890456
7511 2 16.833507 16.090679 75.361428
7512 5 16.84282 15.605417 74.473193
7513 2 25.485212 11.935616 69.36498
7514 2 25.170391 11.978095 67.780373
7515 5 25.517876 11.401475 68.536211
7516 2 30.253878 5.025124 73.172718
7517 2 30.292244 5.605918 71.665037
7518 5 30.799729 5.548154 72.538907
7519 2 14.204685 6.303738 78.033683
7520 2 12.994553 6.763788 77.0663
7521 5 13.534479 7.012343 77.885586
7522 2 41.531336 32.377743 74.218478
7523 2 42.087216 32.541591 72.709821
7524 5 42.256287 32.105303 73.60737
7525 2 47.257066 21.041383 75.677721
7526 2 45.725714 20.552827 75.509883
7527 5 46.601211 20.371231 75.984283
7528 2 29.948961 17.31414 78.448019
7529 2 29.490004 17.742763 76.95888
7530 5 29.965099 17.033297 77.502452
7531 2 52.274247 20.454302 72.51569
7532 2 50.846983 19.699839 72.440855
7533 5 51.31179 20.559283 72.705127
7534 2 36.177662 20.709505 76.227837
7535 2 34.965007 20.891626 77.280546
7536 5 35.313135 20.329975 76.513811
7537 2 50.371717 34.495076 79.490017
7538 2 50.941341 32.982657 79.493739
7539 5 50.281986 33.615834 79.928325
7540 2 44.772558 15.623909 76.39062
7541 2 45.356686 15.255916 77.851877
7542 5 45.535519 15.770262 76.998652
7543 2 32.793262 34.118029 69.199957
7544 2 32.83477 33.553782 70.713825
7545 5 33.330916 33.584607 69.832113
7546 2 45.668729 35.415473 75.593663
7547 2 46.001385 34.989869 74.070476
7548 5 45.609247 34.672094 74.947845
7549 2 28.637982 7.664043 68.750683
7550 2 28.318731 8.109654 67.230353
7551 5 28.739772 8.401475 68.103332
7552 2 16.813828 9.592916 68.320059
7553 2 17.565614 9.420533 66.899848
7554 5 17.680117 9.710288 67.862895
7555 2 47.254275 33.495142 73.052996
7556 2 47.727647 35.001202 72.707169
7557 5 48.043137 34.085181 73.000255
7558 2 7.447416 12.251177 70.242175
7559 2 6.47868 12.203723 71.534922
7560 5 6.598143 11.882283 70.582592
7561 2 23.502319 18.573545 73.865994
7562 2 22.870153 17.635484 72.71174
7563 5 23.264163 18.546726 72.909023
7564 2 13.372857 8.585509 64.533238
7565 2 12.181346 9.453072 65.19621
7566 5 12.548956 9.087362 64.326931
7567 2 3.469759 25.477405 77.076
7568 2 4.180322 26.646517 77.936334
7569 5 3.861645 26.38057 77.013163
7570 2 45.071647 24.924215 71.620563
7571 2 44.778808 25.407225 70.10635
7572 5 45.171403 25.682713 70.997699
7573 2 36.705291 29.524493 75.32753
7574 2 37.60832 30.828574 75.018005
7575 5 36.662309 30.469932 75.04909
7576 2 19.606128 3.27931 76.178082
7577 2 20.754702 2.422067 76.924947
7578 5 20.530643 2.946817 76.088908
7579 2 24.006159 8.166689 77.638498
7580 2 22.875464 8.9513 78.485734
7581 5 23.747701 9.05438 77.982639
7582 2 29.21084 18.861712 68.930858
7583 2 28.021178 18.3891 69.917386
7584 5 28.990894 18.676039 69.874458
7585 2 49.488158 3.124985 76.343552
7586 2 49.6065 3.061062 74.733023
7587 5 50.114446 3.240006 75.590051
7588 2 37.859559 8.95754 65.587212
7589 2 36.668481 9.122422 64.507377
7590 5 36.885341 8.865479 65.462092
7591 2 52.013057 28.360995 73.300287
7592 2 51.715686 27.540613 71.939977
7593 5 51.293436 27.954992 72.76127
7594 2 49.077486 21.838284 68.464803
7595 2 48.894412 21.321385 69.985065
7596 5 49.360029 21.142309 69.104349
7597 2 60.514655 2.461112 76.322778
7598 2 60.313822 3.728559 77.305194
7599 5 60.458515 2.727347 77.271038
7600 2 26.599475 4.096822 70.355363
7601 2 27.561668 3.962834 71.646923
7602 5 26.636485 4.226928 71.33257
7603 2 59.301483 21.186357 71.16081
7604 2 58.241156 21.041706 72.371874
7605 5 58.356031 20.994774 71.36732
7606 2 11.81501 22.354895 68.64225
7607 2 11.222666 23.844273 68.849077
7608 5 10.980603 22.864278 68.774633
7609 2 22.582815 25.627827 72.875414
7610 2 24.123153 25.141091 72.826986
7611 5 23.367407 25.424435 73.4378
7612 2 6.056829 13.957856 70.177284
7613 2 4.790081 14.065618 69.179472
7614 5 5.180437 14.393666 70.053848
7615 2 22.256888 35.404529 71.610719
7616 2 20.693908 35.409874 71.19967
7617 5 21.634224 35.248492 70.861604
7618 2 5.972466 7.868555 75.140709
7619 2 5.187403 9.281184 75.147959
7620 5 6.08396 8.837598 74.993214
7621 2 50.415647 30.494147 73.513717
7622 2 51.035232 30.987066 72.104803
7623 5 50.762541 30.176664 72.646481
7624 2 43.414839 10.654777 68.486384
7625 2 44.02356 11.942056 69.250757
7626 5 43.171251 11.445655 69.02342
7627 2 13.431474 28.866277 67.856334
7628 2 11.968066 29.532862 68.017576
7629 5 12.767359 29.168354 68.520361
7630 2 44.541897 8.226827 74.981743
7631 2 45.755437 7.796543 74.004977
7632 5 44.783572 8.077577 74.036995
7633 2 52.170494 14.886908 67.326593
7634 2 53.431202 13.877582 67.265182
7635 5 52.433036 13.95904 67.118357
7636 2 61.720626 24.881851 67.918827
7637 2 60.37132 24.341645 68.625542
7638 5 60.806353 24.558532 67.737717
7639 2 52.103146 26.663833 76.422861
7640 2 51.853318 28.19403 75.966813
7641 5 52.559945 27.513204 76.215173
7642 2 40.138837 13.603334 70.640441
7643 2 41.063975 13.789074 69.328375
7644 5 40.765888 13.134317 70.040389
7645 2 15.500879 15.233718 72.771233
7646 2 14.490143 14.587817 71.688125
7647 5 15.376892 15.060952 71.8079
7648 2 35.308313 9.61877 68.615794
7649 2 35.521005 11.171289 68.220392
7650 5 34.843777 10.484591 68.527535
7651 2 19.335526 4.601625 78.345654
7652 2 19.719769 3.359735 79.305842
7653 5 19.60263 3.65195 78.343857
7654 2 17.359829 23.95181 73.887739
7655 2 18.30633 25.106558 73.269203
7656 5 17.352573 24.859388 73.501112
7657 2 43.108421 27.703341 80.144997
7658 2 42.397577 26.702571 79.093781
7659 5 43.117793 27.405078 79.204687
7660 2 50.963818 21.444133 70.722298
7661 2 52.123008 22.343133 71.40051
7662 5 51.350198 22.351512 70.746888
7663 2 56.68159 35.32353 76.210514
7664 2 56.936943 33.856605 75.582165
7665 5 56.227164 34.53241 75.835205
7666 2 35.944262 30.746593 79.932321
7667 2 37.204392 29.758237 80.149393
7668 5 36.37848 29.929623 79.589908
7669 2 14.638481 12.116206 71.978826
7670 2 15.23409 10.614961 71.920432
7671 5 14.824977 11.316126 72.525015
7672 2 22.009496 32.897388 75.572226
7673 2 20.742535 31.894692 75.536063
7674 5 21.406426 32.404375 74.966853
7675 2 0.985489 29.382626 76.615551
7676 2 1.933 29.919316 75.421364
7677 5 0.981206 29.689672 75.678035
7678 2 61.737563 35.376376 71.416629
7679 2 61.421852 33.838029 71.79835
7680 5 62.159402 34.510558 71.630271
7681 2 38.381182 29.768824 66.381874
7682 2 39.027514 30.914181 67.321186
7683 5 39.226681 30.07976 66.78397
7684 2 51.641502 23.207113 66.217603
7685 2 51.508088 22.737044 67.7581
7686 5 52.05845 22.645798 66.913527
7687 2 33.03886 22.206849 76.248417
7688 2 32.572633 21.044136 75.227326
7689 5 33.328158 21.671821 75.471705
7690 2 42.470833 4.779312 63.596277
7691 2 43.313887 5.421369 64.816488
7692 5 43.384196 4.991559 63.902788
7693 2 15.43071 21.081091 72.559787
7694 2 15.269519 19.921672 71.445489
7695 5 14.869775 20.778533 71.806765
7696 2 53.237226 21.752862 69.595101
7697 2 53.923358 20.562799 70.446493
7698 5 53.980569 21.545201 70.209551
7699 2 12.619668 1.107699 68.259402
7700 2 12.365646 1.872749 66.858664
7701 5 12.983648 1.798865 67.656876
7702 2 36.815963 9.826259 70.206239
7703 2 38.314583 9.300431 70.505466
7704 5 37.766801 9.979929 69.99288
7705 2 21.280144 5.837816 67.563643
7706 2 20.044777 6.51382 66.770685
7707 5 20.530883 6.472654 67.657553
7708 2 1.014063 29.807958 71.388069
7709 2 2.610811 29.57697 71.29355
7710 5 1.759167 29.269477 71.745963
7711 2 21.529382 28.904672 77.588026
7712 2 21.929845 27.565833 78.399836
7713 5 21.800604 28.566966 78.474381
7714 2 15.785099 20.150932 64.833385
7715 2 15.423369 20.06345 66.406088
7716 5 15.045146 20.226383 65.481465
7717 2 24.829167 16.76492 70.320001
7718 2 25.279961 18.311124 70.45392
7719 5 24.961174 17.59868 69.809463
7720 2 8.51497 24.278562 77.249225
7721 2 9.835974 23.973028 78.12871
7722 5 8.873602 24.284163 78.168237
7723 2 23.737816 34.125807 65.045665
7724 2 23.074604 32.658501 64.90762
7725 5 23.135509 33.483626 65.490704
7726 2 5.156646 25.546308 66.322979
7727 2 6.220794 26.497336 65.564671
7728 5 6.109893 25.797945 66.287915
7729 2 46.024224 12.296263 72.644865
7730 2 47.45945 12.230377 71.904812
7731 5 46.87801 11.802945 72.61457
7732 2 44.204223 7.219984 72.092254
7733 2 43.431063 8.508327 71.497031
7734 5 43.444179 7.829421 72.247659
7735 2 1.000114 22.139611 71.768483
7736 2 1.00059 22.199862 70.15347
7737 5 1.580341 22.265303 70.980594
7738 2 56.300994 1.031833 70.633861
7739 2 55.298488 1.646835 71.742306
7740 5 55.374377 0.996341 70.970539
7741 2 2.563338 7.808656 75.709775
7742 2 2.787139 8.805855 74.457816
7743 5 3.126706 8.546209 75.375316
7744 2 46.316033 7.601573 71.615861
7745 2 46.389135 5.998735 71.809412
7746 5 46.896996 6.814167 71.490545
7747 2 36.611884 22.76543 74.488895
7748 2 36.751741 23.289787 72.966599
7749 5 37.235631 23.183865 73.849299
7750 2 54.942471 22.367426 67.209192
7751 2 54.892138 21.835927 65.683784
7752 5 54.349822 21.970311 66.527799
7753 2 46.979774 28.420153 80.150377
7754 2 47.655844 29.888082 80.153394
7755 5 46.788707 29.380577 80.030755
7756 2 7.732173 14.109131 73.26023
7757 2 7.159917 14.769456 71.900675
7758 5 7.587265 13.942729 72.298698
7759 2 35.539932 34.759786 80.149845
7760 2 36.60393 33.665973 79.617515
7761 5 36.407052 34.656111 79.690949
7762 2 30.733567 31.867252 67.963814
7763 2 30.46459 31.383946 66.445275
7764 5 30.508793 31.082113 67.410402
7765 2 62.066649 35.413476 77.178798
7766 2 62.006663 34.190964 76.123448
7767 5 61.747869 34.48801 77.055819
7768 2 23.891152 26.65446 78.807322
7769 2 23.061539 25.809374 77.707565
7770 5 23.481438 25.775155 78.627913
7771 2 42.451196 15.447354 65.110564
7772 2 42.749509 15.962716 63.60813
7773 5 43.151203 15.82497 64.526931
7774 2 3.947782 21.510372 78.655719
7775 2 3.366031 21.319955 80.151447
7776 5 3.514015 20.86287 79.260548
7777 2 4.054961 28.50635 66.442061
7778 2 3.810937 29.837448 65.558587
7779 5 3.42776 29.252586 66.290461
7780 2 19.709474 1.010887 74.94604
7781 2 18.360731 1.346136 75.770901
7782 5 19.341802 1.112031 75.855885
7783 2 53.894544 3.153431 70.971212
7784 2 54.202045 3.120208 69.384948
7785 5 54.020278 2.549802 70.201113
7786 2 5.804753 24.942328 63.148778
7787 2 5.99456 24.256099 64.599626
7788 5 6.085409 24.112154 63.601852
7789 2 32.387085 19.328368 71.922374
7790 2 31.08177 19.909323 72.677716
7791 5 32.067087 20.059962 72.501687
7792 2 58.862772 5.131136 73.78788
7793 2 59.404777 4.469634 72.416551
7794 5 58.660676 4.450982 73.102476
7795 2 53.252886 18.838987 67.779924
7796 2 53.872166 20.304653 68.063143
7797 5 53.017928 19.762394 68.035552
7798 2 51.763443 3.697321 76.976644
7799 2 53.283449 4.24564 77.005312
7800 5 52.397295 4.248087 77.494446
7801 2 19.910819 20.056877 74.093545
7802 2 19.543595 20.732892 72.672262
7803 5 20.025686 20.872896 73.55119
7804 2 5.041731 18.690729 71.835442
7805 2 4.431544 18.897218 73.317646
7806 5 4.251843 18.512335 72.398897
7807 2 33.580517 22.339855 73.390914
7808 2 34.923977 21.537631 73.795197
7809 5 34.316313 21.792712 73.02695
7810 2 14.947441 11.101563 77.76188
7811 2 13.468747 10.761499 77.205358
7812 5 14.339161 11.23407 76.996591
7813 2 35.956196 17.566267 68.680558
7814 2 37.47498 17.335996 69.182718
7815 5 36.768016 18.034081 68.989314
7816 2 57.22015 22.943034 69.187565
7817 2 56.429868 22.304788 70.444542
7818 5 57.332875 22.619331 70.112627
7819 2 16.933222 9.283165 72.361333
7820 2 16.740337 7.810753 71.723607
7821 5 16.270389 8.677485 71.952634
7822 2 36.525775 4.428022 67.200349
7823 2 36.536745 3.589718 65.818675
7824 5 36.025485 4.271723 66.364578
7825 2 22.742398 28.079583 63.004607
7826 2 23.217467 27.88755 64.537359
7827 5 23.317189 27.535576 63.593592
7828 2 11.690469 22.29504 64.324164
7829 2 10.744451 20.991102 64.453361
7830 5 11.703101 21.311509 64.399912
7831 2 31.140951 1.883818 76.4824
7832 2 30.845631 3.223289 75.627709
7833 5 30.844656 2.211471 75.60031
7834 2 55.933057 16.060282 66.231532
7835 2 56.287348 16.504427 64.718552
7836 5 55.748374 15.860178 65.283333
7837 2 10.189301 29.04109 69.210583
7838 2 10.811769 28.67836 70.657254
7839 5 10.682741 29.417219 69.977573
7840 2 5.509321 24.731079 80.151696
7841 2 4.797284 24.779865 78.701689
7842 5 4.637061 24.669348 79.694987
7843 2 58.876092 26.1464 80.099269
7844 2 59.514113 26.955487 78.854197
7845 5 59.566848 26.102342 79.396314
7846 2 10.252461 6.292571 75.245141
7847 2 11.197664 6.979005 74.128318
7848 5 10.322347 7.060649 74.629996
7849 2 38.748327 1.060919 78.986066
7850 2 39.190779 1.350576 77.458902
7851 5 39.496467 0.976883 78.348528
7852 2 31.197964 33.373029 74.566931
7853 2 30.837001 34.109445 75.959516
7854 5 30.488938 33.870018 75.039704
7855 2 57.106378 9.043057 73.525823
7856 2 56.157701 8.578513 72.302668
7857 5 56.926978 8.302157 72.899633
7858 2 9.045034 33.710701 68.059956
7859 2 7.575816 34.216497 67.615588
7860 5 8.082426 33.616475 68.254218
7861 2 49.61802 5.430529 79.116137
7862 2 48.363471 5.421864 80.134925
7863 5 48.995819 6.014147 79.611604
7864 2 21.89728 34.904917 74.1922
7865 2 20.908745 34.801395 75.466554
7866 5 21.19254 35.38413 74.689117
7867 2 44.266041 31.694324 74.667795
7868 2 45.058603 32.733442 73.717018
7869 5 44.870975 32.473554 74.677113
7870 2 19.19478 6.128432 69.978743
7871 2 18.30883 6.321575 71.316534
7872 5 18.885303 5.671959 70.79672
7873 2 17.080086 2.355072 69.55626
7874 2 16.268687 2.481133 68.16427
7875 5 16.609848 1.833525 68.86337
7876 2 54.502988 1.118672 78.8883
7877 2 54.282179 2.347123 79.914968
7878 5 53.829846 1.569314 79.451357
7879 2 15.91055 31.192612 71.21937
7880 2 15.875859 30.332803 72.587368
7881 5 16.469071 30.865715 71.963966
7882 2 37.027522 6.96194 63.632452
7883 2 37.484267 6.577025 65.134158
7884 5 37.694738 7.157704 64.332259
7885 2 10.539549 24.303485 73.573303
7886 2 9.093688 24.106137 72.878726
7887 5 9.738342 24.786692 73.260556
7888 2 32.908938 11.744203 67.809709
7889 2 32.365503 11.486798 69.309815
7890 5 32.493559 11.068946 68.396837
7891 2 11.109021 25.404693 76.725634
7892 2 11.7384 24.990036 75.296006
7893 5 10.907015 24.953019 75.872162
7894 2 16.468472 7.632144 76.962753
7895 2 15.844328 7.295455 75.51052
7896 5 15.753196 7.130122 76.504948
7897 2 1.049075 24.722478 68.680072
7898 2 1.157344 24.852244 67.072796
7899 5 1.000203 25.363737 67.931988
7900 2 59.518498 24.123647 72.766515
7901 2 58.238187 23.554494 73.571974
7902 5 58.551942 23.94126 72.690783
7903 2 53.11916 1.48871 77.216089
7904 2 51.594142 0.988387 77.026636
7905 5 52.313836 1.596328 76.656534
7906 2 38.312224 19.251963 70.006878
7907 2 38.889356 18.035584 70.900878
7908 5 39.141273 18.860352 70.370951
7909 2 7.742916 27.814041 80.143766
7910 2 9.278617 28.317545 80.14293
7911 5 8.364078 28.461577 79.733784
7912 2 49.133853 10.800731 71.913061
7913 2 50.673871 11.266827 71.761422
7914 5 49.824234 11.052362 71.254816
7915 2 23.391998 31.649262 74.399481
7916 2 23.045479 30.090611 74.149628
7917 5 23.795635 30.756164 74.28686
7918 2 35.940844 25.30555 73.617615
7919 2 37.474697 25.4404 73.126692
7920 5 36.509509 25.601057 72.867597
7921 2 17.706416 22.337409 72.239111
7922 2 18.38523 23.600928 71.494378
7923 5 18.479574 22.949671 72.263462
7924 2 2.934773 13.326579 73.7358
7925 2 1.610671 12.731727 74.446292
7926 5 2.401772 12.50531 73.856867
7927 2 25.59368 1.001906 80.040147
7928 2 24.029883 1.409833 80.045789
7929 5 24.973838 1.762902 80.139706
7930 2 53.374092 14.339576 63.493653
7931 2 53.294507 14.904255 65.005837
7932 5 52.754786 14.690634 64.176624
7933 2 35.224251 6.149349 64.593459
7934 2 35.236011 6.914212 66.017096
7935 5 35.010152 6.044698 65.550768
7936 2 23.76452 10.009014 70.856387
7937 2 24.058213 9.93178 69.269038
7938 5 23.375358 10.193529 69.968841
7939 2 14.570594 23.405354 80.14084
7940 2 15.99509 24.168539 80.156835
7941 5 15.006304 24.273302 79.967482
7942 2 22.452789 30.386137 76.247254
7943 2 23.432898 30.442889 77.531022
7944 5 22.567432 30.792003 77.139083
7945 2 35.588841 3.146633 74.06349
7946 2 35.786902 4.148955 75.315695
7947 5 35.601928 4.098643 74.321824
7948 2 27.681915 33.660518 74.69012
7949 2 27.793283 33.120208 76.209185
7950 5 27.960406 32.888874 75.238061
7951 2 35.802801 32.451701 65.056563
7952 2 35.816733 32.374105 63.442351
7953 5 36.05216 32.948711 64.241682
7954 2 1.099127 22.309699 67.954794
7955 2 1.004068 21.705564 66.458839
7956 5 1.546286 21.707969 67.313545
7957 2 59.329813 6.480638 77.240021
7958 2 57.755068 6.716492 76.963533
7959 5 58.438577 6.453241 77.662132
7960 2 50.657497 29.105641 77.571984
7961 2 52.181268 29.64149 77.625676
7962 5 51.243455 29.854893 77.310249
7963 2 19.41288 8.795669 77.872869
7964 2 20.452072 9.27249 76.73067
7965 5 19.823764 8.531856 77.015659
7966 2 32.938845 3.192458 74.985527
7967 2 32.456613 2.070481 73.926983
7968 5 32.888725 2.219547 74.830081
7969 2 60.663378 3.919012 64.238148
7970 2 61.884158 4.77308 63.611923
7971 5 61.482659 3.847495 63.693268
7972 2 0.997602 13.339928 72.382399
7973 2 1.003954 13.163601 70.775924
7974 5 1.396907 12.821882 71.643877
7975 2 36.543467 15.266879 72.475424
7976 2 34.950936 15.532964 72.545712
7977 5 35.856546 15.974432 72.448217
7978 2 39.30694 15.453767 63.991368
7979 2 39.618724 15.66715 62.420014
7980 5 39.717864 15.030516 63.200652
7981 2 18.066032 17.117105 66.440701
7982 2 17.132683 16.236722 65.45801
7983 5 17.633333 16.23654 66.337713
7984 2 15.889095 14.739844 66.481869
7985 2 14.280731 14.77995 66.635012
7986 5 15.158074 14.957084 67.107685
7987 2 13.784642 15.88959 76.423097
7988 2 14.417593 15.77081 74.940816
7989 5 14.625649 15.736082 75.930783
7990 2 26.464856 5.277908 76.54992
7991 2 25.626034 5.838562 75.287407
7992 5 25.616285 5.180374 76.056316
7993 2 3.600323 20.934186 68.830248
7994 2 2.944353 22.377825 69.142511
7995 5 2.986511 21.410663 69.43806
7996 2 31.521355 19.233915 76.702235
7997 2 32.03466 17.734356 76.386423
7998 5 31.684667 18.350288 77.109375
7999 2 52.80117 21.44108 79.020692
8000 2 53.589197 20.216995 78.31889
8001 5 53.643035 21.196502 78.56828
8002 2 9.203706 12.66695 64.104882
8003 2 8.97819 13.524413 62.753661
8004 5 9.607409 12.893394 63.233688
8005 2 33.572495 1.57582 65.572937
8006 2 32.064468 0.999927 65.494854
8007 5 32.673531 1.756057 65.208783
8008 2 10.27483 31.513905 76.214949
8009 2 9.953527 31.570623 77.797809
8010 5 10.576829 31.19055 77.096691
8011 2 53.256355 26.480249 73.099728
8012 2 54.121362 27.774404 73.534265
8013 5 54.099938 26.762473 73.526283
8014 2 49.004844 9.636561 63.180407
8015 2 49.780206 8.345324 63.766424
8016 5 48.960902 8.654121 63.258572
8017 2 7.392335 3.688809 71.741932
8018 2 6.859003 5.055232 71.063446
8019 5 7.40375 4.671723 71.825483
8020 2 34.752025 12.020529 70.102465
8021 2 35.906159 11.610016 71.15667
8022 5 35.373352 12.382713 70.777747
8023 2 42.632028 26.369087 75.989611
8024 2 42.648535 26.91198 74.467477
8025 5 42.367484 26.145529 75.065885
8026 2 51.306115 11.314691 63.891709
8027 2 50.999678 9.976938 64.745178
8028 5 50.583438 10.792802 64.314322
8029 2 47.030385 22.547385 67.941967
8030 2 46.487915 22.338954 66.433929
8031 5 46.428365 22.924481 67.257421
8032 2 39.343261 8.140986 77.232962
8033 2 38.122312 8.402246 76.206842
8034 5 38.491265 8.625885 77.122476
8035 2 18.998676 22.575579 74.491216
8036 2 19.076359 22.342945 76.088633
8037 5 19.579215 22.242472 75.215954
8038 2 19.490026 24.880949 65.901296
8039 2 19.544478 24.957443 67.514703
8040 5 20.052683 25.158292 66.662696
8041 2 33.315839 22.901974 66.984384
8042 2 34.284258 21.697353 67.456559
8043 5 34.060653 22.324015 66.693786
8044 2 48.333803 5.102412 72.505071
8045 2 48.421875 4.796253 74.089497
8046 5 47.982949 4.520359 73.220156
8047 2 60.200891 12.219851 72.611285
8048 2 59.293101 11.671986 71.39159
8049 5 59.915623 11.4003 72.142044
8050 2 44.593181 20.352181 72.413405
8051 2 44.255176 21.562561 73.429589
8052 5 44.205572 21.257865 72.465624
8053 2 45.835324 22.608214 76.293654
8054 2 45.775524 22.588595 74.678743
8055 5 46.107384 23.103106 75.484768
8056 2 17.704265 34.267859 74.660095
8057 2 18.083271 32.710547 74.452659
8058 5 17.330726 33.354787 74.660403
8059 2 53.889853 6.213396 70.129053
8060 2 52.908964 4.985097 69.753508
8061 5 53.333823 5.496583 70.516662
8062 2 26.276403 7.284886 71.104105
8063 2 25.465607 8.620668 70.691563
8064 5 26.368469 8.257981 70.970534
8065 2 29.107899 16.864958 71.13165
8066 2 30.161729 17.210577 72.307186
8067 5 29.955427 17.331909 71.3237
8068 2 40.036933 24.825121 74.243271
8069 2 40.51248 25.6456 72.934621
8070 5 40.390393 24.721064 73.328137
8071 2 27.093912 24.827725 79.124061
8072 2 27.366254 26.026736 78.075205
8073 5 26.783055 25.22415 78.275859
8074 2 53.739895 34.001677 75.442531
8075 2 54.111796 33.969435 77.014964
8076 5 54.058028 34.557525 76.192901
8077 2 16.919857 19.665116 73.35362
8078 2 16.704425 18.067316 73.46551
8079 5 16.794849 18.843463 72.822123
8080 2 37.828004 26.761099 75.624844
8081 2 37.606531 25.97603 77.020018
8082 5 38.211301 26.617251 76.522408
8083 2 25.948832 16.993693 64.526319
8084 2 26.627136 16.924693 65.991597
8085 5 25.985859 17.442482 65.404071
8086 2 41.103098 18.291841 69.531496
8087 2 41.30863 18.280089 67.928526
8088 5 41.767913 18.137448 68.819166
8089 2 51.183017 9.773774 79.935947
8090 2 52.732963 9.316259 79.920407
8091 5 51.793217 9.034666 80.169625
8092 2 38.839464 29.009435 74.86925
8093 2 39.485776 29.145339 76.344277
8094 5 39.385855 29.596512 75.44373
8095 2 6.483755 12.069468 68.217257
8096 2 6.516861 12.998707 66.895396
8097 5 6.214348 12.948694 67.860026
8098 2 11.822244 10.622904 78.64724
8099 2 12.300176 10.808544 80.17989
8100 5 12.43922 10.27248 79.332641
8101 2 6.599893 14.706743 64.933918
8102 2 6.19469 14.061453 63.508678
8103 5 6.707058 13.906053 64.367665
8104 2 27.420804 26.395939 65.553052
8105 2 26.70189 25.860362 66.897751
8106 5 27.164248 25.578725 66.042512
8107 2 30.278614 21.425882 65.575345
8108 2 29.315987 20.419931 66.395898
8109 5 29.447483 20.898032 65.513483
8110 2 26.874012 20.936926 75.226011
8111 2 26.082396 20.70953 76.616526
8112 5 26.608659 20.250986 75.883511
8113 2 39.913508 0.9957 75.405819
8114 2 39.61069 1.77624 74.023446
8115 5 39.63476 1.864831 75.031463
8116 2 56.618143 1.008745 65.630787
8117 2 57.273194 1.004725 67.108213
8118 5 57.094401 1.569849 66.287728
8119 2 32.226727 23.041027 71.389239
8120 2 32.318984 23.995624 72.690057
8121 5 31.852551 23.854749 71.802858
8122 2 60.633465 8.279102 68.519105
8123 2 60.697799 8.773827 66.981898
8124 5 61.143036 8.84106 67.888414
8125 2 56.574358 1.346893 74.915321
8126 2 56.096407 2.288739 73.692053
8127 5 56.782469 1.605136 73.986218
8128 2 3.075302 18.082576 80.133089
8129 2 3.654978 16.824176 79.301042
8130 5 3.780202 17.392407 80.129269
8131 2 26.856954 1.995178 69.763918
8132 2 27.47206 1.295041 71.084277
8133 5 27.028658 1.122562 70.190872
8134 2 59.799382 34.470501 73.774745
8135 2 59.740101 35.158315 72.313482
8136 5 60.156087 35.2149 73.234503
8137 2 58.280539 29.269662 73.122343
8138 2 57.921418 28.234969 74.310762
8139 5 58.664726 28.772546 73.88294
8140 2 27.31887 26.988155 72.173465
8141 2 27.290335 25.373641 72.106946
8142 5 27.851202 26.196046 71.92363
8143 2 18.935237 14.629662 70.279366
8144 2 20.349517 13.915133 69.961313
8145 5 19.809334 14.762744 69.841788
8146 2 19.010538 15.312928 67.781837
8147 2 19.366529 14.885678 66.264397
8148 5 18.954361 14.571262 67.133757
8149 2 51.948638 33.74538 76.6903
8150 2 51.990998 34.780224 77.930945
8151 5 51.75109 34.675484 76.953192
8152 2 43.505774 13.816968 74.668545
8153 2 43.062242 13.240811 73.225209
8154 5 42.730761 13.503463 74.144808
8155 2 49.361748 16.313724 70.097396
8156 2 50.738921 16.012478 70.887676
8157 5 49.729146 15.984724 70.951802
8158 2 7.184407 34.185338 70.175808
8159 2 6.529634 35.396551 69.329563
8160 5 7.381204 35.057584 69.759048
8161 2 34.021143 27.858866 74.79509
8162 2 34.575172 28.716784 73.542523
8163 5 33.800059 28.60024 74.182948
8164 2 46.628062 10.308846 67.6355
8165 2 46.082267 11.823014 67.489557
8166 5 46.33338 11.097705 68.149402
8167 2 35.390706 22.820813 76.31513
8168 2 35.373655 23.153835 77.89649
8169 5 34.837095 23.197968 77.039353
8170 2 39.302786 14.148317 75.103615
8171 2 39.02199 12.742501 74.357471
8172 5 38.857343 13.740631 74.323484
8173 2 15.19673 35.427058 73.451575
8174 2 16.750343 35.378378 73.009066
8175 5 15.796334 35.338377 72.673217
8176 2 16.728316 1.837857 77.674076
8177 2 16.261715 1.039785 76.348459
8178 5 16.686712 0.942512 77.261937
8179 2 13.50375 19.30778 62.406051
8180 2 14.452388 20.415705 63.1021
8181 5 13.580305 19.908591 63.184766
8182 2 41.422277 1.067459 70.430029
8183 2 42.782496 1.939899 70.453488
8184 5 42.406088 1.000316 70.458984
8185 2 32.099659 9.186134 80.141551
8186 2 32.784437 8.843134 78.718412
8187 5 32.439061 8.446869 79.583407
8188 2 33.834467 14.654865 77.05512
8189 2 33.79636 14.378203 78.646943
8190 5 33.641193 15.073049 77.927472
8191 2 59.298526 0.980236 80.174742
8192 2 59.310379 1.427846 78.621874
8193 5 59.887026 1.273556 79.439309
8194 2 50.122635 24.589026 79.790584
8195 2 50.878903 25.939352 79.32521
8196 5 50.299191 25.525809 80.044546
8197 2 47.745055 13.096871 74.339339
8198 2 46.616845 14.098103 73.759192
8199 5 46.79466 13.349724 74.417095
8200 2 44.775093 35.412615 70.535633
8201 2 45.724956 35.307781 71.838962
8202 5 44.765066 35.327034 71.518388
8203 2 46.47019 28.343944 71.378116
8204 2 47.609481 28.308643 70.2324
8205 5 47.327668 27.926217 71.126189
8206 2 22.837023 11.99538 80.090827
8207 2 21.5298 11.506786 79.275756
8208 5 22.353985 11.195609 79.774169
8209 2 24.876263 24.124584 78.220665
8210 2 24.18095 24.169942 76.762455
8211 5 24.387762 23.580196 77.558668
8212 2 35.335652 26.241889 75.817669
8213 2 35.55986 26.712572 77.347403
8214 5 35.088915 26.931472 76.478598
8215 2 9.730685 12.561859 71.512315
8216 2 9.470855 13.091684 70.007765
8217 5 9.258601 13.249003 70.984866
8218 2 62.154934 13.077079 67.377834
8219 2 61.641619 13.031552 68.909607
8220 5 62.086513 12.497913 68.17352
8221 2 34.021301 19.169308 70.4181
8222 2 35.60492 19.430205 70.228416
8223 5 34.693302 19.869849 70.242351
8224 2 5.036167 12.901225 74.229188
8225 2 5.269094 13.607237 72.794201
8226 5 5.693887 13.40045 73.689364
8227 2 39.824932 5.197136 71.472208
8228 2 39.804159 5.102664 73.085446
8229 5 39.520925 4.642698 72.229446
8230 2 15.936775 5.342037 67.579731
8231 2 14.723338 4.462006 68.183891
8232 5 15.659342 4.80498 68.359367
8233 2 21.323283 6.285923 73.161767
8234 2 20.560748 6.834368 71.846607
8235 5 20.474977 6.675421 72.842552
8236 2 54.343198 32.360813 63.84629
8237 2 54.5409 30.77007 63.640511
8238 5 54.130231 31.479273 64.234572
8239 2 8.600638 0.999731 73.504357
8240 2 7.544407 2.215242 73.367225
8241 5 8.121254 1.69413 74.015466
8242 2 23.88524 26.931438 69.041826
8243 2 24.859304 28.143205 68.600557
8244 5 24.433484 27.276321 68.297706
8245 2 51.964137 6.164114 73.246775
8246 2 53.441592 6.210079 72.593393
8247 5 52.601568 6.74657 72.769641
8248 2 37.736905 24.693896 71.07574
8249 2 37.506074 23.111578 70.841469
8250 5 38.190768 23.817983 71.079616
8251 2 12.373838 15.624127 73.557385
8252 2 13.038587 16.167323 72.188099
8253 5 13.232827 15.746437 73.087907
8254 2 6.723506 4.968529 67.824929
8255 2 7.823217 4.594924 68.948739
8256 5 6.945994 5.071075 68.780551
8257 2 51.834704 4.681024 67.637061
8258 2 51.840784 4.760622 66.022898
8259 5 51.69571 4.150237 66.817197
8260 2 5.438896 20.655634 66.762637
8261 2 3.898366 21.068874 66.50207
8262 5 4.849321 21.185831 66.175676
8263 2 45.958728 17.914646 66.738875
8264 2 46.145989 16.560949 65.876127
8265 5 46.018032 16.932403 66.808959
8266 2 33.90012 9.318703 73.752674
8267 2 32.636087 9.104917 74.736753
8268 5 33.025078 9.6938 74.011199
8269 2 51.556902 25.975916 74.406632
8270 2 51.633178 24.364006 74.495077
8271 5 52.093509 25.226306 74.75787
8272 2 54.219214 21.579822 72.401203
8273 2 55.834079 21.622404 72.449081
8274 5 54.997951 22.182395 72.340327
8275 2 50.581818 22.306538 73.823358
8276 2 50.393732 22.767168 75.360999
8277 5 49.940583 22.705626 74.458006
8278 2 29.085507 20.381734 71.260728
8279 2 28.885134 19.795817 72.753527
8280 5 28.495172 19.823079 71.819871
8281 2 56.33237 28.533482 75.843283
8282 2 55.29958 29.161302 74.770397
8283 5 55.839886 28.339811 75.010707
8284 2 16.809408 30.936794 77.020272
8285 2 16.374577 31.38713 78.510243
8286 5 16.167819 30.754951 77.74727
8287 2 6.875575 35.405718 75.085637
8288 2 6.206488 34.95024 76.484478
8289 5 6.439208 34.650268 75.54619
8290 2 52.667673 17.070085 70.94799
8291 2 52.689556 18.38275 71.890501
8292 5 52.622271 18.055479 70.935046
8293 2 21.240066 6.881829 69.698183
8294 2 21.943451 7.847128 68.609447
8295 5 22.032691 7.445884 69.534415
8296 2 31.773541 23.04063 74.654952
8297 2 31.322081 21.880323 73.624531
8298 5 30.988018 22.607162 74.24472
8299 2 25.295041 3.203788 78.422587
8300 2 26.471883 3.213724 77.314959
8301 5 25.537644 3.540164 77.527475
8302 2 44.049809 8.381975 80.125037
8303 2 43.974119 9.938605 79.697169
8304 5 44.535144 9.239796 80.167749
8305 2 57.5651 30.642601 71.385505
8306 2 58.803231 31.338529 72.156615
8307 5 57.875069 31.490795 71.78264
8308 2 30.770094 8.876692 69.504131
8309 2 30.461705 10.305069 70.194443
8310 5 30.046092 9.507709 69.729674
8311 2 30.658431 5.72621 75.377428
8312 2 32.078163 5.066864 75.779323
8313 5 31.44133 5.248598 75.013853
8314 2 12.924777 11.142833 69.611496
8315 2 13.666124 12.515641 70.03304
8316 5 13.792784 11.611406 69.596184
8317 2 55.361378 9.703946 67.204829
8318 2 55.066089 10.927041 68.219097
8319 5 55.114194 10.658179 67.244455
8320 2 43.695019 1.024204 78.715781
8321 2 43.614168 1.966887 77.405549
8322 5 44.159696 1.745491 78.228902
8323 2 49.63793 32.135265 70.383236
8324 2 49.963116 32.87095 71.784991
8325 5 49.305835 32.271478 71.302142
8326 2 60.961911 23.88261 77.73584
8327 2 62.160648 23.490958 76.725131
8328 5 61.608218 23.171997 77.511014
8329 2 53.182894 22.37261 74.172885
8330 2 52.877153 22.931352 75.658221
8331 5 52.507543 22.38298 74.891929
8332 2 1.005492 17.861892 67.296846
8333 2 1.192675 17.58611 65.715454
8334 5 1.003283 17.153192 66.610574
8335 2 56.516268 35.408061 78.871799
8336 2 57.876852 35.128696 78.045565
8337 5 56.979262 34.742559 78.309684
8338 2 38.465614 14.099443 77.939969
8339 2 38.351864 13.030738 76.732979
8340 5 38.991812 13.493885 77.36582
8341 2 7.445547 10.242954 71.773029
8342 2 8.553969 9.550794 72.723929
8343 5 7.969965 10.368052 72.599205
8344 2 17.038501 27.758127 78.33554
8345 2 18.176665 27.612045 77.197499
8346 5 17.698715 27.134091 77.950925
8347 2 20.923007 8.691832 79.46841
8348 2 22.064262 7.774244 80.152124
8349 5 21.078139 7.835024 79.932139
8350 2 56.576431 33.2954 69.83216
8351 2 56.036453 32.758889 71.257809
8352 5 56.469315 33.540273 70.781788
8353 2 9.570131 16.919972 75.71809
8354 2 10.471759 16.208839 74.580877
8355 5 10.379996 17.029946 75.16559
8356 2 28.479233 14.438118 73.423066
8357 2 28.382221 14.844418 71.861847
8358 5 28.803995 15.082727 72.750579
8359 2 11.670378 32.958294 77.83178
8360 2 11.613386 32.491721 79.378052
8361 5 11.944654 32.243814 78.454293
8362 2 13.548373 26.817299 63.672353
8363 2 14.027386 26.590704 62.14556
8364 5 13.619587 26.142449 62.956298
8365 2 18.035484 22.089635 63.329686
8366 2 17.280159 20.696513 63.012526
8367 5 17.504921 21.613537 62.64773
8368 2 34.584922 24.112871 68.350316
8369 2 33.24197 23.89589 69.222837
8370 5 33.741766 24.543819 68.627086
8371 2 57.426353 16.655704 75.612902
8372 2 56.18487 16.186329 76.535019
8373 5 56.761074 15.938537 75.740592
8374 2 13.783477 26.274146 67.344072
8375 2 13.301217 26.995559 65.980663
8376 5 13.957619 27.04206 66.749754
8377 2 27.160695 31.805794 78.812673
8378 2 26.401227 30.792485 77.808528
8379 5 26.943175 31.645572 77.863861
8380 2 30.770305 8.541485 77.293722
8381 2 31.959388 9.514739 76.792968
8382 5 30.984898 9.272057 76.666469
8383 2 49.167944 34.1989 77.47736
8384 2 49.834392 34.166079 76.0054
8385 5 49.761724 33.676033 76.888067
8386 2 9.062269 14.574776 75.01872
8387 2 8.157505 15.28839 76.151881
8388 5 8.17735 14.555195 75.454342
8389 2 12.984773 17.578281 70.50716
8390 2 13.258096 18.976291 71.270546
8391 5 12.543124 18.317914 70.987911
8392 2 4.912555 24.673678 72.135049
8393 2 4.046445 23.373319 72.548347
8394 5 4.525219 23.836173 71.786068
8395 2 33.081829 17.159639 78.35102
8396 2 32.764807 17.767753 79.814437
8397 5 32.64712 16.961345 79.214118
8398 2 16.213821 22.027194 79.625258
8399 2 15.152857 20.80926 79.678985
8400 5 15.983098 21.198263 80.107825
8401 2 51.204393 30.536281 69.861418
8402 2 51.662157 29.066959 70.354816
8403 5 51.922309 30.044732 70.326399
8404 2 29.649872 29.693718 77.064182
8405 2 28.214563 30.315123 76.657194
8406 5 28.771135 29.469893 76.675655
8407 2 13.408984 34.185002 73.165491
8408 2 12.855722 32.735489 73.617937
8409 5 13.111305 33.658665 73.94497
8410 2 42.72866 13.281914 64.44748
8411 2 42.624459 13.647309 62.876644
8412 5 43.170618 13.77863 63.718661
8413 2 28.697308 23.335266 62.638
8414 2 29.346825 22.105611 63.46139
8415 5 29.554029 22.930973 62.913329
8416 2 15.298117 33.047022 63.363118
8417 2 14.723549 32.513402 64.776277
8418 5 15.419967 32.357853 64.05841
8419 2 44.550848 10.161902 73.408399
8420 2 45.914102 9.595565 72.750601
8421 5 45.171689 10.276219 72.650297
8422 2 60.135458 27.836307 69.479477
8423 2 60.586347 26.301663 69.710695
8424 5 60.743477 27.25901 69.999354
8425 2 56.223246 18.228725 71.609489
8426 2 57.39229 19.076285 70.883628
8427 5 56.846955 18.22443 70.845159
8428 2 53.180566 30.834555 74.06275
8429 2 52.312428 30.841381 75.425903
8430 5 52.544494 30.304925 74.599533
8431 2 61.581996 19.36928 76.622253
8432 2 62.101735 19.336904 78.152194
8433 5 62.160009 19.834281 77.272564
8434 2 46.185048 34.623886 66.922688
8435 2 46.433869 34.521627 68.516277
8436 5 46.637484 34.09453 67.621483
8437 2 10.441421 22.198054 70.807362
8438 2 11.154529 22.792051 72.130442
8439 5 10.303253 22.791988 71.582851
8440 2 15.674154 2.462861 72.06054
8441 2 15.734836 1.005548 71.364513
8442 5 16.251699 1.85866 71.536502
8443 2 22.126496 4.641921 65.579619
8444 2 21.489768 4.480975 64.102944
8445 5 21.34707 4.878197 65.022933
8446 2 30.415557 13.59508 79.469927
8447 2 31.65982 12.809948 80.138712
8448 5 31.370161 13.677356 79.704859
8449 2 53.234852 8.253864 69.642624
8450 2 51.780125 8.540907 68.999762
8451 5 52.457356 8.85988 69.681041
8452 2 55.290244 7.847584 74.297052
8453 2 56.180275 6.97686 75.327382
8454 5 55.442038 7.665516 75.254674
8455 2 28.607979 8.044725 78.112547
8456 2 28.105171 7.208298 76.824342
8457 5 27.986528 7.336016 77.821407
8458 2 17.423805 21.381251 69.953949
8459 2 17.42452 20.38545 71.22685
8460 5 17.651867 20.466274 70.24384
8461 2 3.887611 25.870855 68.086579
8462 2 3.242814 24.499161 68.647461
8463 5 3.19086 25.194236 67.9135
8464 2 51.05449 24.357193 77.809892
8465 2 49.992315 25.390518 77.164976
8466 5 50.840749 24.866232 76.992319
8467 2 17.727233 12.924114 77.859408
8468 2 19.246018 13.054348 78.396277
8469 5 18.291545 12.851578 78.665337
8470 2 43.785289 2.012159 72.414838
8471 2 42.367211 1.270461 72.640306
8472 5 42.856111 2.15363 72.71458
8473 2 10.481038 10.814028 72.641882
8474 2 10.951282 9.789329 71.483971
8475 5 10.710272 9.871208 72.463633
8476 2 21.225464 32.921884 67.386296
8477 2 21.061403 32.78434 65.784403
8478 5 20.562366 32.808712 66.664685
8479 2 0.984867 6.738848 74.612891
8480 2 0.984179 7.242184 73.077134
8481 5 1.036931 7.542039 74.042449
8482 2 28.311614 29.372553 79.764805
8483 2 26.771194 29.861429 79.766002
8484 5 27.691999 30.03811 80.147352
8485 2 33.918708 4.683359 76.919914
8486 2 34.361936 3.150761 76.661866
8487 5 34.442554 3.936311 77.295063
8488 2 16.592481 3.089179 75.623977
8489 2 16.129319 3.837407 76.979533
8490 5 15.839559 3.195559 76.252486
8491 2 4.59608 28.760787 68.558059
8492 2 3.273643 29.443595 69.188004
8493 5 4.193281 29.078209 69.400809
8494 2 42.69523 9.103438 74.148584
8495 2 41.282207 9.856427 73.928878
8496 5 41.753111 8.961174 73.892841
8497 2 28.753154 7.518727 71.050265
8498 2 29.772605 7.645601 72.29787
8499 5 29.569483 7.975979 71.362926
8500 2 20.087657 18.349018 72.703531
8501 2 21.28771 19.411485 72.496332
8502 5 20.918026 18.517608 72.198263
8503 2 12.859161 17.418552 74.723826
8504 2 13.649044 18.453514 73.766312
8505 5 12.754623 18.014486 73.944618
8506 2 35.184103 9.972092 75.533134
8507 2 34.002293 10.319473 76.57934
8508 5 34.383737 9.602154 75.975617
8509 2 47.952251 19.461641 79.726684
8510 2 46.379345 19.583006 80.077585
8511 5 47.277251 20.044905 80.147883
8512 2 25.311004 6.616493 64.333525
8513 2 24.679214 7.855671 63.510619
8514 5 25.524607 7.491895 63.931934
8515 2 18.546783 19.870926 68.197765
8516 2 17.335848 19.38043 67.246479
8517 5 17.588162 19.638015 68.192266
8518 2 7.184585 22.610565 79.487279
8519 2 5.641999 22.549687 79.965419
8520 5 6.591413 22.29967 80.211655
8521 2 40.480589 28.82535 68.869525
8522 2 39.981203 28.103855 67.512339
8523 5 39.678132 28.594533 68.344151
8524 2 43.653644 17.47694 76.778031
8525 2 42.122652 17.978859 76.651392
8526 5 42.715552 17.197131 76.900186
8527 2 50.819563 25.832998 66.984136
8528 2 51.025005 25.221318 65.502401
8529 5 50.54103 25.101791 66.383314
8530 2 37.854317 15.74454 80.145262
8531 2 39.302629 15.278116 79.600524
8532 5 38.74095 16.076555 79.867992
8533 2 32.780661 21.959104 62.912568
8534 2 31.610004 22.770073 62.14851
8535 5 31.875164 22.334753 63.022989
8536 2 25.176575 21.695692 68.76257
8537 2 25.110839 23.103228 69.554034
8538 5 25.404189 22.653296 68.69611
8539 2 35.436133 1.004153 73.584246
8540 2 34.0396 1.068152 72.773386
8541 5 34.492764 1.284633 73.652195
8542 2 61.246029 3.526106 73.165548
8543 2 61.030946 4.971399 73.856026
8544 5 61.723003 4.313122 73.52098
8545 2 44.973122 7.958149 69.817934
8546 2 45.32428 8.73403 68.444401
8547 5 44.571377 8.400719 69.033101
8548 2 59.889728 26.443191 74.498391
8549 2 60.49855 26.845377 73.056352
8550 5 60.248263 26.070917 73.658096
8551 2 24.635516 3.794419 69.41235
8552 2 25.687432 4.42903 68.362285
8553 5 24.92141 4.638769 68.989777
8554 2 48.969695 35.415397 65.896727
8555 2 48.662609 34.92647 67.406212
8556 5 48.311723 34.93944 66.456876
8557 2 46.533498 9.563699 75.052729
8558 2 47.112466 11.062848 74.881722
8559 5 47.065302 10.263446 75.500802
8560 2 40.574718 21.919775 74.257703
8561 2 39.409053 20.83279 74.52525
8562 5 39.692886 21.791795 74.681052
8563 2 19.642627 1.705234 64.04648
8564 2 19.351518 3.274134 64.302804
8565 5 20.078222 2.578087 64.1935
8566 2 22.68987 28.901983 66.640526
8567 2 21.176604 28.340157 66.719738
8568 5 21.892059 28.695585 66.09819
8569 2 39.446608 2.479139 68.029246
8570 2 37.87802 2.857012 67.936301
8571 5 38.79021 3.189938 68.221954
8572 2 4.118837 15.432188 77.670199
8573 2 3.063664 14.788227 78.711266
8574 5 3.810865 14.580285 78.060898
8575 2 44.807152 12.850147 79.337611
8576 2 43.938991 12.203342 78.13768
8577 5 44.457262 11.998765 78.982707
8578 2 53.907668 19.848464 73.850114
8579 2 54.55915 19.403491 72.43963
8580 5 54.205792 19.067288 73.326552
8581 2 25.400723 20.117806 67.242118
8582 2 26.378873 20.280823 65.965974
8583 5 26.055399 19.640058 66.679635
8584 2 39.195891 21.685296 71.838795
8585 2 39.187843 22.930715 72.868728
8586 5 38.633736 22.176043 72.48407
8587 2 9.814501 9.978703 79.832297
8588 2 9.753654 9.285584 78.373607
8589 5 9.500993 9.17852 79.34789
8590 2 45.941044 27.691344 67.152732
8591 2 46.419316 27.518773 65.618662
8592 5 46.010308 27.042637 66.412724
8593 2 32.735274 6.618232 77.20725
8594 2 32.152681 7.270491 75.848191
8595 5 32.996494 6.988958 76.331146
8596 2 62.108539 1.905772 67.536373
8597 2 61.774448 1.483294 66.01263
8598 5 61.785834 1.163161 66.972792
8599 2 6.068408 18.779287 76.095755
8600 2 4.977512 19.632188 76.929063
8601 5 5.104062 18.973049 76.171403
8602 2 23.275199 28.783551 70.064202
8603 2 22.114894 29.5915 69.281382
8604 5 22.897889 28.959823 69.169889
8605 2 61.102261 4.435143 66.953673
8606 2 62.161638 4.348788 68.171113
8607 5 61.984496 4.077316 67.212233
8608 2 45.512179 18.441923 76.106663
8609 2 46.35336 17.842445 74.863709
8610 5 45.894603 17.611542 75.73592
8611 2 53.389768 10.886688 73.609696
8612 2 53.623361 11.132058 72.029467
8613 5 52.947019 10.85264 72.728762
8614 2 44.395496 22.649758 68.834945
8615 2 45.072762 22.898233 70.281135
8616 5 45.228296 22.531872 69.350482
8617 2 25.563759 32.911581 69.067434
8618 2 24.930658 32.404768 67.6695
8619 5 25.631881 33.003152 68.087533
8620 2 33.961288 25.203556 77.280587
8621 2 32.480644 25.847836 77.347616
8622 5 33.023689 25.011139 77.519573
8623 2 41.976488 4.795998 77.31315
8624 2 42.227104 5.208504 75.770773
8625 5 42.679633 4.950797 76.63872
8626 2 43.790077 34.431722 68.719989
8627 2 43.96285 32.863879 69.072005
8628 5 44.411001 33.668178 68.651538
8629 2 30.137486 6.334697 66.150436
8630 2 30.3937 7.051614 67.576016
8631 5 30.327164 7.203527 66.577506
8632 2 3.050593 25.340635 73.161585
8633 2 3.917345 26.101489 74.293724
8634 5 2.980804 25.927647 73.951381
8635 2 8.164725 3.113264 76.596135
8636 2 7.665163 3.540734 75.119787
8637 5 7.691529 3.817659 76.093001
8638 2 18.762583 14.348004 72.798125
8639 2 19.507128 13.239462 71.887805
8640 5 18.681627 13.431961 72.440997
8641 2 13.619618 16.419875 64.960172
8642 2 12.588075 17.183547 65.942324
8643 5 13.469007 16.687054 65.897809
8644 2 14.888922 11.173611 79.954199
8645 2 16.019607 12.173775 79.377035
8646 5 15.476247 11.928754 80.195113
8647 2 20.390159 28.684233 70.300023
8648 2 20.602604 28.06038 68.824364
8649 5 20.174474 27.909216 69.729008
8650 2 25.076824 12.499258 76.122463
8651 2 24.363943 12.79037 77.543361
8652 5 24.451118 13.105402 76.585403
8653 2 59.246304 5.147033 66.013027
8654 2 59.64085 5.833914 64.604331
8655 5 59.884563 5.765158 65.584333
8656 2 19.901693 21.513927 64.36661
8657 2 20.526604 21.276825 62.89516
8658 5 19.942519 20.873908 63.616984
8659 2 48.056175 22.810958 64.629369
8660 2 46.894416 21.735934 64.302973
8661 5 47.517319 22.424034 63.899194
8662 2 36.581898 13.397388 78.999722
8663 2 35.803336 13.285128 77.587938
8664 5 35.921795 13.847584 78.421088
8665 2 13.753924 30.91311 72.776615
8666 2 13.752614 30.764709 71.167307
8667 5 13.375457 31.288938 71.946707
8668 2 41.391766 26.349112 65.273806
8669 2 41.370051 26.152766 66.877824
8670 5 40.794922 26.297783 66.057626
8671 2 15.537891 18.409523 75.318714
8672 2 14.855254 17.807138 76.654017
8673 5 14.698546 18.039024 75.68129
8674 2 59.152746 23.981437 78.983832
8675 2 58.235136 23.32113 80.138771
8676 5 58.845988 23.121206 79.356839
8677 2 28.640914 32.968408 62.689631
8678 2 28.09394 33.082918 64.206075
8679 5 27.967008 32.615076 63.317514
8680 2 12.071486 25.502557 72.557072
8681 2 10.87546 25.66506 71.482359
8682 5 11.571981 26.163634 72.021626
8683 2 53.488641 31.414642 77.609644
8684 2 53.537718 30.867689 79.129621
8685 5 54.046436 30.92056 78.256158
8686 2 30.808332 21.61216 69.980322
8687 2 30.556833 20.9036 68.549732
8688 5 30.163227 21.070077 69.467276
8689 2 3.375768 19.446764 63.507498
8690 2 4.706358 19.980982 64.253175
8691 5 3.697302 20.05194 64.217151
8692 2 23.410576 14.941045 77.201378
8693 2 23.965754 16.075857 78.209283
8694 5 23.196138 15.814914 77.605854
8695 2 60.873656 18.371425 80.140638
8696 2 61.112593 17.485562 78.810205
8697 5 60.973764 17.446626 79.812073
8698 2 3.409415 16.927765 73.691335
8699 2 3.971036 15.628612 74.471513
8700 5 4.228965 16.415692 73.889702
8701 2 39.398299 10.481575 74.883351
8702 2 39.133799 9.487006 73.63725
8703 5 39.162379 9.553327 74.64686
8704 2 1.000481 27.478323 68.535896
8705 2 1.055627 28.800978 67.608838
8706 5 1.605 28.172793 68.181638
8707 2 11.958041 5.209493 63.549944
8708 2 12.364409 6.703772 64.012427
8709 5 12.319201 5.735125 64.30261
8710 2 61.045826 24.014257 74.902678
8711 2 61.62512 24.139236 73.399117
8712 5 61.664974 24.528809 74.332483
8713 2 43.641356 2.339146 75.253215
8714 2 43.707639 0.98986 74.366125
8715 5 44.088168 1.463005 75.175976
8716 2 30.803184 22.924857 76.656945
8717 2 31.2768 21.569522 77.399004
8718 5 30.825885 21.942175 76.572969
8719 2 10.169187 21.930884 78.817575
8720 2 10.797566 20.442568 78.773404
8721 5 9.935574 20.972676 78.79534
8722 2 10.814814 10.049024 75.044791
8723 2 11.805411 9.0884 74.203475
8724 5 10.860668 9.196623 74.550281
8725 2 30.370975 31.74499 77.407357
8726 2 29.72246 31.741979 75.927048
8727 5 29.646915 32.1299 76.858894
8728 2 42.811562 14.740622 71.646505
8729 2 41.468797 15.575324 71.311618
8730 5 41.832697 14.661995 71.552316
8731 2 48.5467 23.098334 72.776862
8732 2 48.108981 22.955742 71.227679
8733 5 47.819577 23.289877 72.138243
8734 2 43.144277 19.449644 67.461758
8735 2 43.720101 20.72533 66.653705
8736 5 43.0019 20.01216 66.663927
8737 2 2.345926 19.552461 66.869593
8738 2 3.552496 18.997342 67.790422
8739 5 2.96719 18.795594 66.989646
8740 2 5.450131 12.986622 77.918942
8741 2 6.005995 12.285873 76.572888
8742 5 6.185178 12.436741 77.557601
8743 2 26.853968 18.308377 74.878814
8744 2 28.454191 18.159139 75.048848
8745 5 27.715928 18.744899 74.679552
8746 2 48.6401 17.526593 77.734269
8747 2 47.043786 17.746503 77.610508
8748 5 47.848908 17.873408 78.210676
8749 2 44.165838 26.03115 68.031108
8750 2 43.074473 25.079191 68.748459
8751 5 43.220881 25.749105 68.003941
8752 2 15.612367 32.759888 76.279151
8753 2 15.505284 34.368216 76.396232
8754 5 15.362084 33.575345 75.783552
8755 2 53.071873 35.02777 67.158124
8756 2 52.785735 33.815185 68.187521
8757 5 53.461135 34.207362 67.543658
8758 2 13.168725 31.415513 76.482275
8759 2 12.723779 30.132003 77.357787
8760 5 13.268689 30.437251 76.56128
8761 2 20.176996 16.246615 63.77976
8762 2 19.348805 17.315482 64.664926
8763 5 19.490816 16.329835 64.48365
8764 2 21.041216 26.617333 75.205846
8765 2 20.541396 28.024185 75.824589
8766 5 21.209634 27.270669 75.925581
8767 2 36.638786 20.429529 72.536995
8768 2 37.010833 20.346157 74.107513
8769 5 36.990955 20.951436 73.296483
8770 2 38.349808 18.501818 67.533217
8771 2 37.623822 18.862978 66.135218
8772 5 38.03669 19.251574 66.973704
8773 2 5.092282 31.116801 70.913571
8774 2 3.942269 31.427943 69.821528
8775 5 4.118099 31.091968 70.760001
8776 2 24.16001 23.534948 65.874686
8777 2 23.991695 24.030528 67.403727
8778 5 23.520835 23.93106 66.513264
8779 2 9.00265 22.150475 63.034048
8780 2 9.072658 23.572673 63.798473
8781 5 9.471052 22.643516 63.748709
8782 2 14.304495 2.588855 65.77314
8783 2 15.403785 3.675093 66.245943
8784 5 14.413428 3.503443 66.126541
8785 2 1.315406 27.402853 74.588437
8786 2 2.628323 27.351275 75.529439
8787 5 1.647832 27.600369 75.496023
8788 2 22.795421 1.156784 72.374176
8789 2 23.201199 1.432074 70.834223
8790 5 23.498329 0.999954 71.699968
8791 2 23.036963 21.264683 68.492842
8792 2 22.114678 22.230094 67.5822
8793 5 22.437683 22.047706 68.52397
8794 2 12.615478 29.773548 74.27523
8795 2 11.858945 31.123589 74.741001
8796 5 11.773969 30.280791 74.186927
8797 2 33.924088 31.005572 65.441903
8798 2 34.650197 30.775801 66.867338
8799 5 33.77365 30.698193 66.367169
8800 2 10.021671 12.863487 76.008012
8801 2 8.822229 12.388496 75.034556
8802 5 9.586374 12.069411 75.616617
8803 2 18.84609 26.588757 75.305057
8804 2 17.781724 27.12908 74.215528
8805 5 18.482775 27.406997 74.89067
8806 2 55.165316 5.693251 73.852686
8807 2 54.887904 4.13124 73.544371
8808 5 54.542939 4.948916 74.031129
8809 2 32.022195 16.106509 63.640683
8810 2 32.673615 16.187641 65.117493
8811 5 32.590298 16.66078 64.22658
8812 2 19.861097 18.446993 66.914762
8813 2 20.269328 19.591341 65.849065
8814 5 20.197593 19.370862 66.834342
8815 2 50.852255 10.495744 69.398445
8816 2 50.94134 11.050408 67.883087
8817 5 51.482949 10.758147 68.686686
8818 2 13.419981 23.755259 74.361366
8819 2 14.370874 24.72811 73.488865
8820 5 13.513418 24.677716 74.024361
8821 2 44.696671 31.46248 71.152291
8822 2 44.389432 32.974035 71.634684
8823 5 43.982828 32.138587 71.233151
8824 2 8.86286 28.080445 74.545212
8825 2 9.244263 29.443229 75.325755
8826 5 8.509371 28.957099 74.827619
8827 2 43.954822 18.186101 69.051546
8828 2 45.417625 17.532874 68.838477
8829 5 44.526689 17.423663 69.306275
8830 2 45.916477 17.438443 71.005628
8831 2 45.542275 17.993466 72.47662
8832 5 45.571641 18.224653 71.491624
8833 2 43.321287 3.364825 67.091402
8834 2 44.656882 4.105433 66.562647
8835 5 43.65354 4.190406 66.665662
8836 2 1.6372 16.307217 74.833971
8837 2 2.228495 15.068372 75.686924
8838 5 1.400494 15.438814 75.237798
8839 2 23.754529 35.313436 75.628691
8840 2 22.708208 35.410005 76.85661
8841 5 23.020195 34.836494 76.083127
8842 2 54.350282 18.537763 69.661584
8843 2 55.130727 17.612919 68.590386
8844 5 55.04669 17.844773 69.572072
8845 2 20.730476 9.381462 62.946483
8846 2 20.282321 10.711692 62.145521
8847 5 20.901026 10.34927 62.859931
8848 2 60.664813 31.624801 67.308115
8849 2 62.152124 32.046968 66.837394
8850 5 61.568093 31.272351 67.126191
8851 2 1.592969 24.254429 71.925708
8852 2 2.197195 24.873193 70.560448
8853 5 2.395756 24.275347 71.352711
8854 2 9.761713 14.937998 68.38485
8855 2 10.976054 15.436749 69.327464
8856 5 10.474763 15.614865 68.466354
8857 2 55.844821 12.939403 67.79442
8858 2 55.38362 13.465076 66.337417
8859 5 55.656344 13.752674 67.26878
8860 2 15.081069 17.001493 70.821055
8861 2 14.91952 17.321881 72.396856
8862 5 15.057152 17.733205 71.482308
8863 2 48.514587 32.11321 68.426311
8864 2 46.907839 32.013694 68.283646
8865 5 47.665558 32.50468 68.741162
8866 2 52.037446 20.879614 65.602256
8867 2 52.255416 19.282031 65.712325
8868 5 51.613651 20.007778 65.419141
8869 2 49.301116 16.443163 79.654195
8870 2 47.766697 16.588412 80.140362
8871 5 48.379038 16.14733 79.465816
8872 2 41.107526 26.286909 69.071679
8873 2 41.008566 24.709075 69.407152
8874 5 40.475417 25.535718 69.16853
8875 2 37.291262 2.344455 77.961312
8876 2 36.270627 2.250441 79.210856
8877 5 36.532953 2.797456 78.400617
8878 2 44.028916 15.945676 67.350599
8879 2 44.589351 15.029514 66.142934
8880 5 43.8332 15.147083 66.805461
8881 2 7.871029 3.068472 67.33693
8882 2 7.484835 1.826167 66.378061
8883 5 8.141746 2.15717 67.073354
8884 2 48.337912 12.989019 76.459258
8885 2 49.67216 12.91667 77.368348
8886 5 48.690348 12.674348 77.325284
8887 2 42.3123 21.065664 75.349703
8888 2 43.575932 20.145619 75.760371
8889 5 42.625726 20.13232 75.41186
8890 2 3.189704 3.53683 75.390357
8891 2 4.784602 3.288747 75.308802
8892 5 3.922463 2.973503 75.735259
8893 2 13.971719 25.303421 76.325678
8894 2 13.948628 26.908125 76.51617
8895 5 13.435942 26.113881 76.154427
8896 2 16.743997 15.599653 78.697351
8897 2 16.889083 14.938731 77.22969
8898 5 16.463123 14.834251 78.141923
8899 2 6.776474 29.638835 65.888131
8900 2 5.804111 28.610724 65.107495
8901 5 6.178705 28.864046 66.013052
8902 2 5.453522 31.964468 74.021239
8903 2 6.257628 31.348268 72.76203
8904 5 5.477421 31.932221 73.035531
8905 2 39.540743 7.072154 75.175883
8906 2 40.128244 5.567045 75.213093
8907 5 39.78031 6.329966 75.780032
8908 2 24.756758 30.304487 69.489215
8909 2 25.534754 31.267601 70.527979
8910 5 24.732217 30.662538 70.408143
8911 2 32.103065 28.564982 76.647473
8912 2 31.688982 28.137561 75.144894
8913 5 31.334381 28.450411 76.03983
8914 2 37.507781 11.507086 75.363948
8915 2 36.541287 11.408356 76.655473
8916 5 37.125993 10.878521 76.0215
8917 2 27.809878 9.845806 77.134569
8918 2 29.244179 10.579387 77.005972
8919 5 28.243323 10.70686 76.924943
8920 2 20.68852 31.779899 77.731019
8921 2 20.100866 31.787081 79.236511
8922 5 20.036806 31.343137 78.329131
8923 2 30.614654 17.928529 64.913591
8924 2 30.687579 19.056556 63.758544
8925 5 30.063269 18.510763 64.338953
8926 2 45.970079 6.899235 76.005831
8927 2 46.954204 6.202045 74.930044
8928 5 46.887262 6.560577 75.874237
8929 2 8.240684 7.690261 71.169765
8930 2 8.692558 6.436269 72.083663
8931 5 8.373401 6.712723 71.16375
8932 2 39.128141 35.013669 63.548228
8933 2 40.13604 33.75105 63.505446
8934 5 40.081596 34.760503 63.556126
8935 2 7.054056 30.885066 75.500112
8936 2 7.54169 32.13464 76.401595
8937 5 6.945004 31.856534 75.632732
8938 2 11.53247 21.770642 77.144052
8939 2 11.923298 20.239418 76.80567
8940 5 12.280847 21.183174 76.883201
8941 2 20.779885 12.413501 75.354732
8942 2 20.187203 13.07499 74.004526
8943 5 20.51958 13.27015 74.940456
8944 2 6.275817 29.396132 77.124395
8945 2 6.170253 28.839925 78.638127
8946 5 6.621497 28.708584 77.741659
8947 2 18.078695 27.812878 69.064937
8948 2 18.192763 28.837634 70.309429
8949 5 17.821219 27.945668 70.007967
8950 2 62.160397 8.485523 75.614287
8951 2 61.126955 7.516538 76.39208
8952 5 62.105682 7.727104 76.242807
8953 2 16.049378 22.584169 67.74972
8954 2 14.50514 22.932944 67.424786
8955 5 15.456725 23.016409 67.090052
8956 2 25.137808 17.110844 74.04664
8957 2 25.032098 17.323744 72.44808
8958 5 25.461682 17.666059 73.298259
8959 2 49.561412 15.439118 65.864526
8960 2 49.617661 14.929611 67.397215
8961 5 50.100798 14.920975 66.507815
8962 2 19.474834 11.637245 80.066221
8963 2 18.593679 10.326562 79.723335
8964 5 18.571361 11.24821 80.14118
8965 2 12.048045 4.027083 66.53854
8966 2 11.335933 3.732662 65.117939
8967 5 11.465659 4.422381 65.847312
8968 2 46.733902 14.385351 79.603616
8969 2 47.550056 14.354862 78.209034
8970 5 47.588285 14.11439 79.191499
8971 2 34.066636 11.652964 73.566592
8972 2 33.900102 11.304245 71.997339
8973 5 34.506488 11.210581 72.802355
8974 2 15.242374 15.051929 64.402109
8975 2 15.167932 15.734276 62.938976
8976 5 15.736419 15.625276 63.769319
8977 2 41.31086 5.705506 79.198005
8978 2 40.736559 4.550852 80.172093
8979 5 41.574133 5.031034 79.868083
8980 2 24.837522 30.032634 67.174424
8981 2 26.200633 30.825878 66.821454
8982 5 25.280155 30.577648 66.481412
8983 2 12.765438 31.976419 65.626415
8984 2 11.297428 32.450957 65.14511
8985 5 12.074845 31.837508 64.935752
8986 2 3.412104 11.625186 79.75392
8987 2 3.175523 12.232467 78.275023
8988 5 3.860451 11.823015 78.897719
8989 2 50.026755 2.240736 70.450327
8990 2 50.909604 3.260544 71.340532
8991 5 50.247678 2.495675 71.377381
8992 2 3.995624 14.095494 66.938657
8993 2 4.39893 14.566557 65.44623
8994 5 4.75776 14.209376 66.322694
8995 2 39.193084 18.266143 63.633759
8996 2 37.75045 17.807186 64.199499
8997 5 38.528777 17.537152 63.611436
8998 2 59.521478 2.006153 67.422844
8999 2 59.048172 3.547391 67.534489
9000 5 59.270642 2.798338 66.891096
9001 2 24.087054 17.742113 67.772777
9002 2 22.583895 18.232616 67.438389
9003 5 23.368427 17.690619 67.098867
9004 2 4.718648 19.043315 79.030288
9005 2 5.889606 18.884462 80.132794
9006 5 5.109351 19.456962 79.83619
9007 2 34.456354 17.563017 71.857525
9008 2 34.692075 16.920209 70.393582
9009 5 34.011428 17.070813 71.127452
9010 2 2.990478 23.813148 62.134766
9011 2 2.793593 25.417175 62.149917
9012 5 2.310454 24.527738 62.147412
9013 2 21.784227 7.764679 66.237401
9014 2 21.308808 8.562889 64.915004
9015 5 22.014438 8.514502 65.63907
9016 2 44.862976 12.979469 64.875925
9017 2 44.291934 12.726547 66.366508
9018 5 44.980758 12.429972 65.686734
9019 2 60.08788 9.515656 71.022936
9020 2 58.95033 9.213011 72.130312
9021 5 59.861185 8.934893 71.787498
9022 2 27.374649 11.557407 70.6059
9023 2 26.754722 10.228817 69.925875
9024 5 27.439343 10.966581 69.818518
9025 2 26.22558 31.717536 72.744379
9026 2 25.875395 33.042937 73.600288
9027 5 25.659847 32.061862 73.475554
9028 2 14.382386 30.730794 68.946662
9029 2 13.46841 31.099236 67.665727
9030 5 13.566567 31.209845 68.667055
9031 2 20.66055 17.370447 77.616919
9032 2 21.444716 16.665087 78.841439
9033 5 20.78502 17.392241 78.595318
9034 2 61.640733 28.714144 72.847525
9035 2 61.601673 29.590394 71.490117
9036 5 61.710779 28.656608 71.865174
9037 2 8.074213 11.86704 80.091552
9038 2 6.658847 12.545414 79.706269
9039 5 7.650353 12.53569 79.502926
9040 2 2.313356 9.904407 72.191908
9041 2 0.99614 9.045773 71.818299
9042 5 1.414959 9.652219 72.512086
9043 2 29.962545 25.818941 71.433654
9044 2 30.744204 25.95127 70.025324
9045 5 29.893121 25.628641 70.468151
9046 2 16.230373 19.257463 78.549717
9047 2 15.831663 18.744058 80.029359
9048 5 16.352397 18.518085 79.191326
9049 2 23.386672 17.306991 64.411426
9050 2 21.868559 17.157682 64.94522
9051 5 22.445014 17.265523 64.120236
9052 2 13.524113 22.12965 72.896781
9053 2 13.272099 20.586143 73.304178
9054 5 13.407601 21.52201 73.665176
9055 2 60.482783 21.652499 79.445918
9056 2 61.708155 20.679322 79.850004
9057 5 61.456513 21.524345 79.352873
9058 2 6.623995 33.538089 78.116942
9059 2 5.578419 32.814626 77.119312
9060 5 5.741338 33.099293 78.076887
9061 2 21.779222 24.39592 68.465792
9062 2 23.043717 23.980784 69.382641
9063 5 22.435896 24.744383 69.114316
9064 2 43.780375 3.984096 78.278053
9065 2 45.182575 4.719426 77.953983
9066 5 44.670391 3.850045 77.874156
9067 2 37.348974 18.327718 72.442641
9068 2 36.62074 17.610809 71.190598
9069 5 36.524919 18.326145 71.900274
9070 2 49.524944 26.84982 70.999746
9071 2 49.424442 28.321491 71.660033
9072 5 49.671099 27.809242 70.822603
9073 2 45.63959 14.08727 70.861766
9074 2 44.830073 14.110558 72.26035
9075 5 44.785632 13.836105 71.287093
9076 2 56.083693 20.126875 74.042454
9077 2 57.340031 19.154118 73.747066
9078 5 56.670407 19.785914 73.326393
9079 2 7.563105 20.08029 66.482444
9080 2 6.738364 20.051449 65.092889
9081 5 7.46609 19.595561 65.628713
9082 2 24.222469 7.308824 69.440057
9083 2 23.575879 5.980686 70.095699
9084 5 24.382482 6.592167 70.098866
9085 2 42.392855 23.842103 76.13223
9086 2 41.841848 23.631355 74.627613
9087 5 41.63967 24.04596 75.528587
9088 2 20.814936 13.581764 65.247056
9089 2 20.476009 12.979613 66.708028
9090 5 21.148778 13.513978 66.172899
9091 2 24.667784 6.390514 66.424432
9092 2 23.622083 7.231324 67.325233
9093 5 24.466927 6.674312 67.347658
9094 2 22.098507 30.845483 65.68436
9095 2 21.824597 30.744835 64.094788
9096 5 21.401126 30.664064 65.010581
9097 2 49.011878 34.679004 70.949605
9098 2 49.925893 35.023441 72.237175
9099 5 49.868342 35.081536 71.228294
9100 2 31.634 4.870096 68.271699
9101 2 32.876408 5.764062 67.752911
9102 5 31.926964 5.476994 67.551229
9103 2 25.093064 9.934309 76.038259
9104 2 25.065551 10.729794 77.444795
9105 5 25.52351 9.99251 76.924013
9106 2 15.820385 14.211943 80.147469
9107 2 14.685172 13.886959 79.044031
9108 5 14.859421 14.309852 79.946985
9109 2 13.087916 35.386416 75.361048
9110 2 13.317742 34.144526 76.369405
9111 5 13.23724 35.151609 76.307514
9112 2 26.348133 20.057165 69.648601
9113 2 27.377795 19.958098 68.406877
9114 5 27.231172 20.35608 69.32592
9115 2 11.230771 19.046782 75.087922
9116 2 9.893916 19.388134 74.246381
9117 5 10.808657 18.957208 74.200777
9118 2 17.946621 32.843787 72.14415
9119 2 17.381156 32.796577 70.630903
9120 5 17.975155 32.328289 71.303509
9121 2 48.388097 33.82757 63.394318
9122 2 49.703068 34.099778 64.293568
9123 5 49.105185 33.3817 63.904431
9124 2 41.320847 3.783231 68.510619
9125 2 40.780132 4.886922 67.461148
9126 5 41.608384 4.495762 67.891868
9127 2 48.287447 20.837038 73.642044
9128 2 49.126308 21.032449 72.274556
9129 5 48.754676 20.34963 72.922765
9130 2 36.130111 35.41441 76.612239
9131 2 37.237678 35.397087 77.789053
9132 5 36.262901 35.231426 77.572507
9133 2 31.772308 10.788933 78.578362
9134 2 30.255693 11.289456 78.825853
9135 5 31.149412 11.537481 78.420542
9136 2 11.758975 12.031573 74.953535
9137 2 12.860862 10.849793 74.987255
9138 5 12.544904 11.695049 75.445774
9139 2 40.672575 2.565649 72.089072
9140 2 40.534345 3.091471 70.567133
9141 5 41.015921 3.230771 71.446455
9142 2 17.233541 30.663229 69.544109
9143 2 17.55793 31.623988 68.285694
9144 5 16.87623 31.405447 69.001272
9145 2 30.858245 31.986692 70.696888
9146 2 31.223655 32.663464 72.118278
9147 5 30.817003 32.830377 71.206521
9148 2 24.123926 20.557586 72.254028
9149 2 24.51327 20.726226 70.694583
9150 5 24.596071 20.12419 71.504043
9151 2 50.867675 18.380238 69.632834
9152 2 50.176138 18.136635 71.073087
9153 5 50.552272 18.838086 70.447773
9154 2 21.81703 22.032525 71.378086
9155 2 20.649569 22.601871 72.339739
9156 5 21.410666 22.861767 71.725155
9157 2 39.615952 12.852017 63.798385
9158 2 39.967802 12.683596 65.366738
9159 5 39.887817 13.347553 64.606942
9160 2 29.151574 20.200831 75.489854
9161 2 30.380973 19.474486 74.732955
9162 5 30.125198 20.245232 75.337154
9163 2 58.926843 1.001778 72.17237
9164 2 59.757042 1.000695 70.785768
9165 5 59.802092 1.219938 71.772901
9166 2 14.590447 8.930912 77.692593
9167 2 14.130608 8.87785 76.144166
9168 5 14.882478 9.132593 76.772119
9169 2 1.02806 27.849857 79.217983
9170 2 2.133125 28.972358 79.579534
9171 5 1.730629 28.423676 78.830219
9172 2 29.242316 24.889502 78.233433
9173 2 29.443231 26.244304 77.375506
9174 5 29.580746 25.2415 77.376232
9175 2 1.952314 15.866956 72.435832
9176 2 1.154264 15.702512 71.040135
9177 5 1.075755 15.635209 72.047028
9178 2 28.974166 21.688185 73.87908
9179 2 28.090133 21.874236 72.539019
9180 5 28.048663 21.735328 73.540773
9181 2 1.027005 35.369986 71.837867
9182 2 0.987629 35.447928 73.451642
9183 5 1.595076 35.387888 72.64422
9184 2 10.050607 8.289902 67.483852
9185 2 10.702111 8.990599 68.786334
9186 5 10.89827 8.425114 67.970077
9187 2 61.804872 30.401941 69.132771
9188 2 62.156585 28.865173 69.488492
9189 5 61.522191 29.46903 68.981118
9190 2 22.652224 4.14586 68.517174
9191 2 23.542277 4.678492 67.277818
9192 5 22.844825 4.001583 67.560451
9193 2 50.596859 11.61295 78.890591
9194 2 49.907735 12.377107 80.136813
9195 5 50.527466 12.486347 79.344016
9196 2 40.324652 1.006121 63.287075
9197 2 39.574475 1.868738 62.1447
9198 5 40.477164 1.572411 62.4938
9199 2 61.157253 16.238431 76.893068
9200 2 59.731566 16.997033 76.954992
9201 5 60.245357 16.18198 77.26521
9202 2 17.450041 34.412327 66.210295
9203 2 17.791811 33.776242 67.656146
9204 5 18.191605 34.126139 66.794598
9205 2 17.028303 1.511399 73.567827
9206 2 18.380379 1.429407 72.686315
9207 5 17.986606 1.280383 73.606783
9208 2 40.628075 22.156652 68.510059
9209 2 41.096626 21.161863 67.325681
9210 5 40.751872 21.206248 68.276314
9211 2 22.689876 29.734865 72.009789
9212 2 21.308472 30.336514 71.425292
9213 5 22.316498 30.349524 71.334502
9214 2 32.287544 6.273309 69.86231
9215 2 31.806418 7.119087 71.152687
9216 5 32.543164 6.534413 70.77867
9217 2 11.618726 14.959045 75.976183
9218 2 11.609889 15.993367 77.217954
9219 5 11.026656 15.475029 76.573212
9220 2 7.661868 24.045264 70.652712
9221 2 9.120429 24.72809 70.517647
9222 5 8.629973 23.856991 70.676287
9223 2 57.517715 27.855277 70.762655
9224 2 58.703137 26.756846 70.751757
9225 5 57.935677 27.135514 71.292259
9226 2 45.688655 33.0221 64.512672
9227 2 44.706343 33.862044 65.482957
9228 5 44.820284 32.991196 64.979798
9229 1 4.335886 10.004582 22.906535
9230 1 4.335886 0.769779 32.008614
9231 1 4.335886 9.741677 41.111505
9232 1 4.335886 0.506875 50.213585
9233 1 4.335886 9.478408 59.315664
9234 1 3.937351 14.243466 27.540749
9235 1 3.937351 5.008299 36.64364
9236 1 3.937351 13.980197 45.745719
9237 1 3.937351 4.745394 54.84861
9238 1 4.186198 5.262829 27.019795
9239 1 4.186198 14.234726 36.121875
9240 1 4.186198 4.999924 45.224766
9241 1 4.186198 13.971457 54.326845
9242 1 4.036511 0.39727 22.628206
9243 1 4.036511 9.369168 31.730286
9244 1 4.036511 0.134365 40.832365
9245 1 4.036511 9.106263 49.935256
9246 1 4.036511 36.284497 59.037336
9247 1 9.958327 9.7384 22.015558
9248 1 9.958327 0.503233 31.118449
9249 1 9.958327 9.475131 40.220529
9250 1 9.958327 0.240328 49.322608
9251 1 9.958327 9.212226 58.425499
9252 1 10.348651 14.169546 27.023041
9253 1 10.348651 4.934744 36.125932
9254 1 10.348651 13.906642 45.228012
9255 1 10.348651 4.671839 54.330091
9256 1 10.233701 4.805112 27.504233
9257 1 10.233701 13.77701 36.607124
9258 1 10.233701 4.542208 45.709204
9259 1 10.233701 13.513741 54.812095
9260 1 10.533076 0.282204 22.615223
9261 1 10.533076 9.254101 31.717302
9262 1 10.533076 0.019299 40.820193
9263 1 10.533076 8.991197 49.922273
9264 1 10.533076 17.96273 59.025164
9265 4 4.002405 10.059566 21.621192
9266 4 4.002405 0.824399 30.723271
9267 4 4.002405 9.796297 39.825351
9268 4 4.002405 0.561495 48.928242
9269 4 4.002405 9.533392 58.030321
9270 4 3.777558 9.217688 23.780471
9271 4 3.777558 36.396286 32.88255
9272 4 3.777558 8.954783 41.98463
9273 4 3.777558 36.133017 51.087521
9274 4 3.777558 8.691514 60.1896
9275 4 4.110407 13.392849 26.561324
9276 4 4.110407 4.158046 35.664215
9277 4 4.110407 13.129944 44.766294
9278 4 4.110407 3.895141 53.868374
9279 4 4.511469 15.468048 27.527765
9280 4 4.511469 6.233246 36.629845
9281 4 4.511469 15.205143 45.731925
9282 4 4.511469 5.969977 54.834816
9283 4 4.851897 5.163784 28.140413
9284 4 4.851897 14.135318 37.242493
9285 4 4.851897 4.900515 46.345384
9286 4 4.851897 13.872413 55.447463
9287 4 3.584922 4.25527 26.418508
9288 4 3.584922 13.227168 35.520587
9289 4 3.584922 3.992365 44.622667
9290 4 3.584922 12.963899 53.725558
9291 4 5.286433 36.409395 22.811595
9292 4 5.286433 8.967892 31.913674
9293 4 5.286433 36.14649 41.016565
9294 4 5.286433 8.704987 50.118645
9295 4 5.286433 35.883221 59.220724
9296 4 3.688503 1.074195 21.578996
9297 4 3.688503 10.046093 30.681076
9298 4 3.688503 0.811291 39.783155
9299 4 3.688503 9.783188 48.886046
9300 4 3.688503 0.548022 57.988126
9301 4 9.718321 9.860385 23.270878
9302 4 9.718321 0.625582 32.373769
9303 4 9.718321 9.597116 41.475848
9304 4 9.718321 0.362313 50.578739
9305 4 9.718321 9.334211 59.680819
9306 4 11.036456 9.208585 21.497851
9307 4 11.036456 36.386818 30.59993
9308 4 11.036456 8.945316 39.70201
9309 4 11.036456 36.123913 48.804901
9310 4 11.036456 8.682411 57.90698
9311 4 10.584867 15.291807 27.651918
9312 4 10.584867 6.056641 36.754809
9313 4 10.584867 15.028538 45.856888
9314 4 10.584867 5.793736 54.958968
9315 4 11.269514 13.250108 26.745524
9316 4 11.269514 4.015306 35.848415
9317 4 11.269514 12.987203 44.950494
9318 4 11.269514 3.752401 54.052574
9319 4 9.715795 5.839981 26.97192
9320 4 9.715795 14.811515 36.07481
9321 4 9.715795 5.576712 45.17689
9322 4 9.715795 14.54861 54.279781
9323 4 10.492023 4.60848 28.791199
9324 4 10.492023 13.580378 37.893279
9325 4 10.492023 4.345575 46.99617
9326 4 10.492023 13.317109 56.098249
9327 4 10.448443 35.780171 23.532977
9328 4 10.448443 8.338304 32.635057
9329 4 10.448443 35.516902 41.737948
9330 4 10.448443 8.0754 50.840027
9331 4 10.448443 17.047297 59.942918
9332 4 10.166121 1.54939 22.711786
9333 4 10.166121 10.521288 31.813866
9334 4 10.166121 1.286485 40.916756
9335 4 10.166121 10.258019 50.018836
9336 4 10.166121 19.229917 59.121727
9337 2 3.252072 9.443815 21.282816
9338 2 3.252072 0.209013 30.385706
9339 2 3.252072 9.180546 39.487786
9340 2 3.252072 36.359144 48.589866
9341 2 3.252072 8.917642 57.692756
9342 2 2.847221 8.805488 23.583288
9343 2 2.847221 35.983722 32.686179
9344 2 2.847221 8.54222 41.788258
9345 2 2.847221 35.720817 50.891149
9346 2 2.847221 8.279315 59.993229
9347 2 5.2138 10.538402 23.206773
9348 2 5.2138 1.303236 32.308852
9349 2 5.2138 10.275133 41.411743
9350 2 5.2138 1.040331 50.513823
9351 2 5.2138 10.012228 59.615902
9352 2 4.508311 10.673132 21.05642
9353 2 4.508311 1.437965 30.159311
9354 2 4.508311 10.409863 39.26139
9355 2 4.508311 1.17506 48.36347
9356 2 4.508311 10.146958 57.466361
9357 2 4.251884 9.040719 24.735552
9358 2 4.251884 36.218952 33.838443
9359 2 4.251884 8.77745 42.940523
9360 2 4.251884 35.956048 52.042602
9361 2 4.251884 8.514545 61.145493
9362 2 4.628314 13.713286 25.735264
9363 2 4.628314 4.478484 34.837343
9364 2 4.628314 13.450018 43.939423
9365 2 4.628314 4.215215 53.042314
9366 2 5.254854 15.515386 26.864808
9367 2 5.254854 6.280583 35.967699
9368 2 5.254854 15.252481 45.069778
9369 2 5.254854 6.017678 54.172669
9370 2 3.373338 14.011148 28.373301
9371 2 3.373338 4.775982 37.47538
9372 2 3.373338 13.747879 46.578271
9373 2 3.373338 4.513077 55.680351
9374 2 3.497762 12.604134 26.433926
9375 2 3.497762 3.369332 35.536005
9376 2 3.497762 12.34123 44.638896
9377 2 3.497762 3.106427 53.740976
9378 2 4.76158 15.828905 28.423611
9379 2 4.76158 6.594103 37.52569
9380 2 4.76158 15.566 46.62777
9381 2 4.76158 6.331198 55.730661
9382 2 3.70303 3.311435 26.855882
9383 2 3.70303 12.282968 35.957961
9384 2 3.70303 3.048166 45.060852
9385 2 3.70303 12.020063 54.162932
9386 2 2.875011 4.395097 25.725526
9387 2 2.875011 13.366995 34.827606
9388 2 2.875011 4.131828 43.929685
9389 2 2.875011 13.103726 53.032576
9390 2 4.082617 6.272936 26.611634
9391 2 4.082617 15.244834 35.714525
9392 2 4.082617 6.010032 44.816604
9393 2 4.082617 14.981565 53.919495
9394 2 4.92832 4.315352 28.663801
9395 2 4.92832 13.28725 37.765881
9396 2 4.92832 4.052447 46.868772
9397 2 4.92832 13.023981 55.970851
9398 2 5.240327 6.030423 28.536403
9399 2 5.240327 15.002321 37.639294
9400 2 5.240327 5.767518 46.741373
9401 2 5.240327 14.739416 55.844264
9402 2 6.096767 0.322987 22.343386
9403 2 6.096767 9.294884 31.445465
9404 2 6.096767 0.060082 40.548356
9405 2 6.096767 9.031616 49.650436
9406 2 6.096767 36.210213 58.752515
9407 2 2.836484 1.611657 21.612266
9408 2 2.836484 10.583555 30.715157
9409 2 2.836484 1.348388 39.817236
9410 2 2.836484 10.320286 48.920127
9411 2 2.836484 1.085483 58.022207
9412 2 3.254599 0.068821 23.319565
9413 2 3.254599 9.040355 32.422456
9414 2 3.254599 36.218952 41.524536
9415 2 3.254599 8.77745 50.626615
9416 2 3.254599 35.956048 59.729506
9417 2 4.315043 1.469281 20.887637
9418 2 4.315043 10.441178 29.990528
9419 2 4.315043 1.206376 39.092608
9420 2 4.315043 10.177909 48.194687
9421 2 4.315043 0.943107 57.297578
9422 2 5.501807 36.015402 23.697703
9423 2 5.501807 8.573535 32.799782
9424 2 5.501807 35.752133 41.902673
9425 2 5.501807 8.31063 51.004753
9426 2 5.501807 35.489228 60.106832
9427 2 8.806301 10.189926 23.469684
9428 2 8.806301 0.954759 32.571764
9429 2 8.806301 9.926657 41.674655
9430 2 8.806301 0.691855 50.776734
9431 2 8.806301 9.663752 59.879625
9432 2 10.152857 9.455832 24.032833
9433 2 10.152857 0.221029 33.134913
9434 2 10.152857 9.192927 42.236992
9435 2 10.152857 36.371525 51.339883
9436 2 10.152857 8.929658 60.441963
9437 2 11.790578 8.757059 21.992026
9438 2 11.790578 35.935292 31.094106
9439 2 11.790578 8.49379 40.196185
9440 2 11.790578 35.672387 49.299076
9441 2 11.790578 8.230885 58.401156
9442 2 9.270522 10.252921 21.411837
9443 2 9.270522 1.018119 30.514728
9444 2 9.270522 9.990016 39.616807
9445 2 9.270522 0.75485 48.719698
9446 2 9.270522 9.726747 57.821778
9447 2 10.982139 9.293064 20.450264
9448 2 10.982139 0.057897 29.552343
9449 2 10.982139 9.029795 38.655234
9450 2 10.982139 36.208393 47.757314
9451 2 10.982139 8.76689 56.859393
9452 2 9.821271 15.897726 27.642181
9453 2 9.821271 6.662924 36.745071
9454 2 9.821271 15.634822 45.847151
9455 2 9.821271 6.400019 54.950042
9456 2 11.548046 15.598408 27.928624
9457 2 11.548046 6.363606 37.030703
9458 2 11.548046 15.335503 46.133594
9459 2 11.548046 6.100701 55.235674
9460 2 12.220061 13.435452 27.110678
9461 2 12.220061 4.20065 36.212758
9462 2 12.220061 13.172183 45.314837
9463 2 12.220061 3.937381 54.417728
9464 2 9.377261 13.944512 26.58161
9465 2 9.377261 4.709709 35.68369
9466 2 9.377261 13.681607 44.786581
9467 2 9.377261 4.44644 53.88866
9468 2 10.985929 12.396942 26.306527
9469 2 10.985929 3.16214 35.409418
9470 2 10.985929 12.134037 44.511498
9471 2 10.985929 2.899235 53.614389
9472 2 11.220881 3.892592 28.982703
9473 2 11.220881 12.86449 38.084782
9474 2 11.220881 3.629688 47.187673
9475 2 11.220881 12.601585 56.289753
9476 2 10.195174 5.238796 29.569384
9477 2 10.195174 14.210693 38.671463
9478 2 10.195174 4.975891 47.774354
9479 2 10.195174 13.947789 56.876434
9480 2 9.539581 5.862193 25.966528
9481 2 9.539581 14.834091 35.068608
9482 2 9.539581 5.598924 44.171498
9483 2 9.539581 14.570822 53.273578
9484 2 9.434736 6.703343 27.576453
9485 2 9.434736 15.67524 36.679344
9486 2 9.434736 6.440074 45.781423
9487 2 9.434736 15.411972 54.883503
9488 2 10.480654 3.975615 26.871299
9489 2 10.480654 12.947513 35.973379
9490 2 10.480654 3.712346 45.075458
9491 2 10.480654 12.684244 54.178349
9492 2 10.963823 34.843254 23.313885
9493 2 10.963823 7.401752 32.415964
9494 2 10.963823 34.579985 41.518044
9495 2 10.963823 7.138483 50.620935
9496 2 10.963823 16.110381 59.723014
9497 2 10.545708 2.231049 22.130785
9498 2 10.545708 11.202947 31.232864
9499 2 10.545708 1.96778 40.334944
9500 2 10.545708 10.939678 49.437835
9501 2 10.545708 19.911575 58.539914
9502 2 10.063171 35.833335 24.484002
9503 2 10.063171 8.391468 33.586893
9504 2 10.063171 35.570066 42.688972
9505 2 10.063171 8.128563 51.791052
9506 2 10.063171 17.100461 60.893943
9507 2 9.492211 1.79336 23.436414
9508 2 9.492211 10.765258 32.538494
9509 2 9.492211 1.530455 41.641385
9510 2 9.492211 10.501989 50.743464
9511 2 9.492211 19.473886 59.846355
9512 2 10.941086 36.395557 21.622003
9513 2 10.941086 8.954055 30.724083
9514 2 10.941086 36.132653 39.826974
9515 2 10.941086 8.690786 48.929053
9516 2 10.941086 17.662684 58.031944
9517 6 0.938547 9.625882 26.984091
9518 6 0.938547 0.390716 36.086171
9519 6 0.938547 9.362613 45.189062
9520 6 0.938547 0.127811 54.291141
9521 6 0.779386 4.997739 22.703671
9522 6 0.779386 13.969637 31.806562
9523 6 0.779386 4.734834 40.908642
9524 6 0.779386 13.706368 50.010721
9525 6 0.779386 4.471566 59.113612
9526 6 1.178553 14.338869 22.722335
9527 6 1.178553 5.104066 31.825226
9528 6 1.178553 14.075964 40.927305
9529 6 1.178553 4.840797 50.030196
9530 6 1.178553 13.812695 59.132276
9531 6 1.364241 0.495951 26.885094
9532 6 1.364241 9.467484 35.987173
9533 6 1.364241 0.232682 45.090064
9534 6 1.364241 9.204579 54.192144
9535 6 7.479324 0.370324 27.562658
9536 6 7.479324 9.342222 36.664738
9537 6 7.479324 0.10742 45.766817
9538 6 7.479324 9.078953 54.869708
9539 6 7.366901 14.306097 22.822144
9540 6 7.366901 5.07093 31.925035
9541 6 7.366901 14.042828 41.027114
9542 6 7.366901 4.808025 50.130005
9543 6 7.366901 13.779923 59.232085
9544 6 6.974681 4.974799 22.948731
9545 6 6.974681 13.946696 32.05081
9546 6 6.974681 4.711894 41.153701
9547 6 6.974681 13.683427 50.255781
9548 6 6.974681 4.448625 59.35786
9549 6 7.282899 9.525017 27.427145
9550 6 7.282899 0.290215 36.529225
9551 6 7.282899 9.261748 45.632116
9552 6 7.282899 0.026946 54.734195
9553 3 1.452664 12.029531 24.800469
9554 3 1.452664 2.794364 33.902548
9555 3 1.452664 11.766262 43.004628
9556 3 1.452664 2.53146 52.107519
9557 3 0.805281 7.731657 24.73961
9558 3 0.805281 16.703555 33.841689
9559 3 0.805281 7.468752 42.94458
9560 3 0.805281 16.440286 52.04666
9561 3 3.88935 5.030147 22.676082
9562 3 3.88935 14.001681 31.778973
9563 3 3.88935 4.766878 40.881053
9564 3 3.88935 13.738776 49.983943
9565 3 3.88935 4.503973 59.086023
9566 3 1.242975 7.527378 20.226302
9567 3 1.242975 16.498912 29.328382
9568 3 1.242975 7.264109 38.431273
9569 3 1.242975 16.236007 47.533352
9570 3 1.242975 7.001204 56.636243
9571 3 1.116025 3.012845 20.240097
9572 3 1.116025 11.984742 29.342177
9573 3 1.116025 2.74994 38.445068
9574 3 1.116025 11.721473 47.547147
9575 3 1.116025 2.486671 56.650038
9576 3 1.193711 11.90354 19.999907
9577 3 1.193711 2.668738 29.102798
9578 3 1.193711 11.640636 38.204877
9579 3 1.193711 2.405833 47.306957
9580 3 1.193711 11.377367 56.409848
9581 3 3.984089 9.406674 27.39063
9582 3 3.984089 0.171507 36.493521
9583 3 3.984089 9.143405 45.5956
9584 3 3.984089 18.115302 54.69768
9585 3 0.695384 16.22836 20.174369
9586 3 0.695384 6.993193 29.276449
9587 3 0.695384 15.965091 38.378528
9588 3 0.695384 6.730289 47.481419
9589 3 0.695384 15.702186 56.583499
9590 3 0.958127 16.820806 24.472641
9591 3 0.958127 7.586004 33.574721
9592 3 0.958127 16.557901 42.677612
9593 3 0.958127 7.322735 51.779691
9594 3 4.308096 0.779975 27.018984
9595 3 4.308096 9.751873 36.121063
9596 3 4.308096 0.51707 45.223954
9597 3 4.308096 9.488604 54.326034
9598 3 4.204515 14.678606 23.018516
9599 3 4.204515 5.443439 32.120595
9600 3 4.204515 14.415337 41.222675
9601 3 4.204515 5.180534 50.325566
9602 3 4.204515 14.152432 59.427645
9603 3 0.924021 2.748119 24.780994
9604 3 0.924021 11.720017 33.883073
9605 3 0.924021 2.485215 42.985964
9606 3 0.924021 11.456748 52.088044
9607 3 6.521198 7.956692 21.09537
9608 3 6.521198 16.928226 30.197449
9609 3 6.521198 7.693423 39.30034
9610 3 6.521198 16.665321 48.40242
9611 3 6.521198 7.430518 57.504499
9612 3 7.081421 12.022612 20.64907
9613 3 7.081421 2.78781 29.751149
9614 3 7.081421 11.759708 38.85404
9615 3 7.081421 2.524905 47.95612
9616 3 7.081421 11.496439 57.058199
9617 3 6.853416 7.607852 25.081232
9618 3 6.853416 16.579749 34.183311
9619 3 6.853416 7.344583 43.285391
9620 3 6.853416 16.31648 52.388282
9621 3 10.495181 14.197949 23.266009
9622 3 10.495181 4.963146 32.368089
9623 3 10.495181 13.935044 41.47098
9624 3 10.495181 4.700242 50.573059
9625 3 10.495181 13.671775 59.675139
9626 3 6.907733 12.0339 25.120181
9627 3 6.907733 2.798734 34.222261
9628 3 6.907733 11.770632 43.325152
9629 3 6.907733 2.535829 52.427231
9630 3 7.239951 3.066008 20.498139
9631 3 7.239951 12.037906 29.600219
9632 3 7.239951 2.803104 38.70311
9633 3 7.239951 11.774637 47.80519
9634 3 7.239951 2.539835 56.90808
9635 3 7.407954 16.246203 25.430968
9636 3 7.407954 7.0114 34.533859
9637 3 7.407954 15.982934 43.635939
9638 3 7.407954 6.748131 52.738018
9639 3 10.093488 5.254454 22.957657
9640 3 10.093488 14.225987 32.060548
9641 3 10.093488 4.991185 41.162627
9642 3 10.093488 13.963082 50.264707
9643 3 10.093488 4.72828 59.367598
9644 3 10.192648 9.155785 27.02223
9645 3 10.192648 18.127683 36.125121
9646 3 10.192648 8.892516 45.2272
9647 3 10.192648 17.864414 54.330091
9648 3 7.360585 2.248892 24.892974
9649 3 7.360585 11.220789 33.995865
9650 3 7.360585 1.985987 43.097945
9651 3 7.360585 10.957884 52.200836
9652 3 10.381494 0.68348 27.071728
9653 3 10.381494 9.655013 36.174619
9654 3 10.381494 0.420211 45.276699
9655 3 10.381494 9.392108 54.37959
9656 3 7.507746 16.685348 20.567925
9657 3 7.507746 7.450546 29.670816
9658 3 7.507746 16.422443 38.772895
9659 3 7.507746 7.187641 47.874975
9660 3 7.507746 16.159175 56.977866
9661 1 16.967746 10.004582 22.906535
9662 1 16.967746 0.769779 32.008614
9663 1 16.967746 9.741677 41.111505
9664 1 16.967746 0.506875 50.213585
9665 1 16.967746 9.478408 59.315664
9666 1 16.569211 14.243466 27.540749
9667 1 16.569211 5.008299 36.64364
9668 1 16.569211 13.980197 45.745719
9669 1 16.569211 4.745394 54.84861
9670 1 16.818058 5.262829 27.019795
9671 1 16.818058 14.234726 36.121875
9672 1 16.818058 4.999924 45.224766
9673 1 16.818058 13.971457 54.326845
9674 1 16.668371 0.39727 22.628206
9675 1 16.668371 9.369168 31.730286
9676 1 16.668371 0.134365 40.832365
9677 1 16.668371 9.106263 49.935256
9678 1 16.668371 36.284497 59.037336
9679 1 22.590187 9.7384 22.015558
9680 1 22.590187 0.503233 31.118449
9681 1 22.590187 9.475131 40.220529
9682 1 22.590187 0.240328 49.322608
9683 1 22.590187 9.212226 58.425499
9684 1 22.980511 14.169546 27.023041
9685 1 22.980511 4.934744 36.125932
9686 1 22.980511 13.906642 45.228012
9687 1 22.980511 4.671839 54.330091
9688 1 22.865561 4.805112 27.504233
9689 1 22.865561 13.77701 36.607124
9690 1 22.865561 4.542208 45.709204
9691 1 22.865561 13.513741 54.812095
9692 1 23.164936 0.282204 22.615223
9693 1 23.164936 9.254101 31.717302
9694 1 23.164936 0.019299 40.820193
9695 1 23.164936 8.991197 49.922273
9696 1 23.164936 17.96273 59.025164
9697 4 16.634265 10.059566 21.621192
9698 4 16.634265 0.824399 30.723271
9699 4 16.634265 9.796297 39.825351
9700 4 16.634265 0.561495 48.928242
9701 4 16.634265 9.533392 58.030321
9702 4 16.409418 9.217688 23.780471
9703 4 16.409418 36.396286 32.88255
9704 4 16.409418 8.954783 41.98463
9705 4 16.409418 36.133017 51.087521
9706 4 16.409418 8.691514 60.1896
9707 4 16.742267 13.392849 26.561324
9708 4 16.742267 4.158046 35.664215
9709 4 16.742267 13.129944 44.766294
9710 4 16.742267 3.895141 53.868374
9711 4 17.143329 15.468048 27.527765
9712 4 17.143329 6.233246 36.629845
9713 4 17.143329 15.205143 45.731925
9714 4 17.143329 5.969977 54.834816
9715 4 17.483757 5.163784 28.140413
9716 4 17.483757 14.135318 37.242493
9717 4 17.483757 4.900515 46.345384
9718 4 17.483757 13.872413 55.447463
9719 4 16.216782 4.25527 26.418508
9720 4 16.216782 13.227168 35.520587
9721 4 16.216782 3.992365 44.622667
9722 4 16.216782 12.963899 53.725558
9723 4 17.918293 36.409395 22.811595
9724 4 17.918293 8.967892 31.913674
9725 4 17.918293 36.14649 41.016565
9726 4 17.918293 8.704987 50.118645
9727 4 17.918293 35.883221 59.220724
9728 4 16.320363 1.074195 21.578996
9729 4 16.320363 10.046093 30.681076
9730 4 16.320363 0.811291 39.783155
9731 4 16.320363 9.783188 48.886046
9732 4 16.320363 0.548022 57.988126
9733 4 22.350181 9.860385 23.270878
9734 4 22.350181 0.625582 32.373769
9735 4 22.350181 9.597116 41.475848
9736 4 22.350181 0.362313 50.578739
9737 4 22.350181 9.334211 59.680819
9738 4 23.668316 9.208585 21.497851
9739 4 23.668316 36.386818 30.59993
9740 4 23.668316 8.945316 39.70201
9741 4 23.668316 36.123913 48.804901
9742 4 23.668316 8.682411 57.90698
9743 4 23.216727 15.291807 27.651918
9744 4 23.216727 6.056641 36.754809
9745 4 23.216727 15.028538 45.856888
9746 4 23.216727 5.793736 54.958968
9747 4 23.901374 13.250108 26.745524
9748 4 23.901374 4.015306 35.848415
9749 4 23.901374 12.987203 44.950494
9750 4 23.901374 3.752401 54.052574
9751 4 22.347655 5.839981 26.97192
9752 4 22.347655 14.811515 36.07481
9753 4 22.347655 5.576712 45.17689
9754 4 22.347655 14.54861 54.279781
9755 4 23.123883 4.60848 28.791199
9756 4 23.123883 13.580378 37.893279
9757 4 23.123883 4.345575 46.99617
9758 4 23.123883 13.317109 56.098249
9759 4 23.080303 35.780171 23.532977
9760 4 23.080303 8.338304 32.635057
9761 4 23.080303 35.516902 41.737948
9762 4 23.080303 8.0754 50.840027
9763 4 23.080303 17.047297 59.942918
9764 4 22.797981 1.54939 22.711786
9765 4 22.797981 10.521288 31.813866
9766 4 22.797981 1.286485 40.916756
9767 4 22.797981 10.258019 50.018836
9768 4 22.797981 19.229917 59.121727
9769 2 15.883932 9.443815 21.282816
9770 2 15.883932 0.209013 30.385706
9771 2 15.883932 9.180546 39.487786
9772 2 15.883932 36.359144 48.589866
9773 2 15.883932 8.917642 57.692756
9774 2 15.479081 8.805488 23.583288
9775 2 15.479081 35.983722 32.686179
9776 2 15.479081 8.54222 41.788258
9777 2 15.479081 35.720817 50.891149
9778 2 15.479081 8.279315 59.993229
9779 2 17.84566 10.538402 23.206773
9780 2 17.84566 1.303236 32.308852
9781 2 17.84566 10.275133 41.411743
9782 2 17.84566 1.040331 50.513823
9783 2 17.84566 10.012228 59.615902
9784 2 17.140171 10.673132 21.05642
9785 2 17.140171 1.437965 30.159311
9786 2 17.140171 10.409863 39.26139
9787 2 17.140171 1.17506 48.36347
9788 2 17.140171 10.146958 57.466361
9789 2 16.883744 9.040719 24.735552
9790 2 16.883744 36.218952 33.838443
9791 2 16.883744 8.77745 42.940523
9792 2 16.883744 35.956048 52.042602
9793 2 16.883744 8.514545 61.145493
9794 2 17.260174 13.713286 25.735264
9795 2 17.260174 4.478484 34.837343
9796 2 17.260174 13.450018 43.939423
9797 2 17.260174 4.215215 53.042314
9798 2 17.886714 15.515386 26.864808
9799 2 17.886714 6.280583 35.967699
9800 2 17.886714 15.252481 45.069778
9801 2 17.886714 6.017678 54.172669
9802 2 16.005198 14.011148 28.373301
9803 2 16.005198 4.775982 37.47538
9804 2 16.005198 13.747879 46.578271
9805 2 16.005198 4.513077 55.680351
9806 2 16.129622 12.604134 26.433926
9807 2 16.129622 3.369332 35.536005
9808 2 16.129622 12.34123 44.638896
9809 2 16.129622 3.106427 53.740976
9810 2 17.39344 15.828905 28.423611
9811 2 17.39344 6.594103 37.52569
9812 2 17.39344 15.566 46.62777
9813 2 17.39344 6.331198 55.730661
9814 2 16.33489 3.311435 26.855882
9815 2 16.33489 12.282968 35.957961
9816 2 16.33489 3.048166 45.060852
9817 2 16.33489 12.020063 54.162932
9818 2 15.506871 4.395097 25.725526
9819 2 15.506871 13.366995 34.827606
9820 2 15.506871 4.131828 43.929685
9821 2 15.506871 13.103726 53.032576
9822 2 16.714477 6.272936 26.611634
9823 2 16.714477 15.244834 35.714525
9824 2 16.714477 6.010032 44.816604
9825 2 16.714477 14.981565 53.919495
9826 2 17.56018 4.315352 28.663801
9827 2 17.56018 13.28725 37.765881
9828 2 17.56018 4.052447 46.868772
9829 2 17.56018 13.023981 55.970851
9830 2 17.872187 6.030423 28.536403
9831 2 17.872187 15.002321 37.639294
9832 2 17.872187 5.767518 46.741373
9833 2 17.872187 14.739416 55.844264
9834 2 18.728627 0.322987 22.343386
9835 2 18.728627 9.294884 31.445465
9836 2 18.728627 0.060082 40.548356
9837 2 18.728627 9.031616 49.650436
9838 2 18.728627 36.210213 58.752515
9839 2 15.468344 1.611657 21.612266
9840 2 15.468344 10.583555 30.715157
9841 2 15.468344 1.348388 39.817236
9842 2 15.468344 10.320286 48.920127
9843 2 15.468344 1.085483 58.022207
9844 2 15.886459 0.068821 23.319565
9845 2 15.886459 9.040355 32.422456
9846 2 15.886459 36.218952 41.524536
9847 2 15.886459 8.77745 50.626615
9848 2 15.886459 35.956048 59.729506
9849 2 16.946903 1.469281 20.887637
9850 2 16.946903 10.441178 29.990528
9851 2 16.946903 1.206376 39.092608
9852 2 16.946903 10.177909 48.194687
9853 2 16.946903 0.943107 57.297578
9854 2 18.133667 36.015402 23.697703
9855 2 18.133667 8.573535 32.799782
9856 2 18.133667 35.752133 41.902673
9857 2 18.133667 8.31063 51.004753
9858 2 18.133667 35.489228 60.106832
9859 2 21.438161 10.189926 23.469684
9860 2 21.438161 0.954759 32.571764
9861 2 21.438161 9.926657 41.674655
9862 2 21.438161 0.691855 50.776734
9863 2 21.438161 9.663752 59.879625
9864 2 22.784717 9.455832 24.032833
9865 2 22.784717 0.221029 33.134913
9866 2 22.784717 9.192927 42.236992
9867 2 22.784717 36.371525 51.339883
9868 2 22.784717 8.929658 60.441963
9869 2 24.422438 8.757059 21.992026
9870 2 24.422438 35.935292 31.094106
9871 2 24.422438 8.49379 40.196185
9872 2 24.422438 35.672387 49.299076
9873 2 24.422438 8.230885 58.401156
9874 2 21.902382 10.252921 21.411837
9875 2 21.902382 1.018119 30.514728
9876 2 21.902382 9.990016 39.616807
9877 2 21.902382 0.75485 48.719698
9878 2 21.902382 9.726747 57.821778
9879 2 23.613999 9.293064 20.450264
9880 2 23.613999 0.057897 29.552343
9881 2 23.613999 9.029795 38.655234
9882 2 23.613999 36.208393 47.757314
9883 2 23.613999 8.76689 56.859393
9884 2 22.453131 15.897726 27.642181
9885 2 22.453131 6.662924 36.745071
9886 2 22.453131 15.634822 45.847151
9887 2 22.453131 6.400019 54.950042
9888 2 24.179906 15.598408 27.928624
9889 2 24.179906 6.363606 37.030703
9890 2 24.179906 15.335503 46.133594
9891 2 24.179906 6.100701 55.235674
9892 2 24.851921 13.435452 27.110678
9893 2 24.851921 4.20065 36.212758
9894 2 24.851921 13.172183 45.314837
9895 2 24.851921 3.937381 54.417728
9896 2 22.009121 13.944512 26.58161
9897 2 22.009121 4.709709 35.68369
9898 2 22.009121 13.681607 44.786581
9899 2 22.009121 4.44644 53.88866
9900 2 23.617789 12.396942 26.306527
9901 2 23.617789 3.16214 35.409418
9902 2 23.617789 12.134037 44.511498
9903 2 23.617789 2.899235 53.614389
9904 2 23.852741 3.892592 28.982703
9905 2 23.852741 12.86449 38.084782
9906 2 23.852741 3.629688 47.187673
9907 2 23.852741 12.601585 56.289753
9908 2 22.827034 5.238796 29.569384
9909 2 22.827034 14.210693 38.671463
9910 2 22.827034 4.975891 47.774354
9911 2 22.827034 13.947789 56.876434
9912 2 22.171441 5.862193 25.966528
9913 2 22.171441 14.834091 35.068608
9914 2 22.171441 5.598924 44.171498
9915 2 22.171441 14.570822 53.273578
9916 2 22.066596 6.703343 27.576453
9917 2 22.066596 15.67524 36.679344
9918 2 22.066596 6.440074 45.781423
9919 2 22.066596 15.411972 54.883503
9920 2 23.112514 3.975615 26.871299
9921 2 23.112514 12.947513 35.973379
9922 2 23.112514 3.712346 45.075458
9923 2 23.112514 12.684244 54.178349
9924 2 23.595683 34.843254 23.313885
9925 2 23.595683 7.401752 32.415964
9926 2 23.595683 34.579985 41.518044
9927 2 23.595683 7.138483 50.620935
9928 2 23.595683 16.110381 59.723014
9929 2 23.177568 2.231049 22.130785
9930 2 23.177568 11.202947 31.232864
9931 2 23.177568 1.96778 40.334944
9932 2 23.177568 10.939678 49.437835
9933 2 23.177568 19.911575 58.539914
9934 2 22.695031 35.833335 24.484002
9935 2 22.695031 8.391468 33.586893
9936 2 22.695031 35.570066 42.688972
9937 2 22.695031 8.128563 51.791052
9938 2 22.695031 17.100461 60.893943
9939 2 22.124071 1.79336 23.436414
9940 2 22.124071 10.765258 32.538494
9941 2 22.124071 1.530455 41.641385
9942 2 22.124071 10.501989 50.743464
9943 2 22.124071 19.473886 59.846355
9944 2 23.572946 36.395557 21.622003
9945 2 23.572946 8.954055 30.724083
9946 2 23.572946 36.132653 39.826974
9947 2 23.572946 8.690786 48.929053
9948 2 23.572946 17.662684 58.031944
9949 6 13.570407 9.625882 26.984091
9950 6 13.570407 0.390716 36.086171
9951 6 13.570407 9.362613 45.189062
9952 6 13.570407 0.127811 54.291141
9953 6 13.411246 4.997739 22.703671
9954 6 13.411246 13.969637 31.806562
9955 6 13.411246 4.734834 40.908642
9956 6 13.411246 13.706368 50.010721
9957 6 13.411246 4.471566 59.113612
9958 6 13.810413 14.338869 22.722335
9959 6 13.810413 5.104066 31.825226
9960 6 13.810413 14.075964 40.927305
9961 6 13.810413 4.840797 50.030196
9962 6 13.810413 13.812695 59.132276
9963 6 13.996101 0.495951 26.885094
9964 6 13.996101 9.467484 35.987173
9965 6 13.996101 0.232682 45.090064
9966 6 13.996101 9.204579 54.192144
9967 6 20.111184 0.370324 27.562658
9968 6 20.111184 9.342222 36.664738
9969 6 20.111184 0.10742 45.766817
9970 6 20.111184 9.078953 54.869708
9971 6 19.998761 14.306097 22.822144
9972 6 19.998761 5.07093 31.925035
9973 6 19.998761 14.042828 41.027114
9974 6 19.998761 4.808025 50.130005
9975 6 19.998761 13.779923 59.232085
9976 6 19.606541 4.974799 22.948731
9977 6 19.606541 13.946696 32.05081
9978 6 19.606541 4.711894 41.153701
9979 6 19.606541 13.683427 50.255781
9980 6 19.606541 4.448625 59.35786
9981 6 19.914759 9.525017 27.427145
9982 6 19.914759 0.290215 36.529225
9983 6 19.914759 9.261748 45.632116
9984 6 19.914759 0.026946 54.734195
9985 3 14.084524 12.029531 24.800469
9986 3 14.084524 2.794364 33.902548
9987 3 14.084524 11.766262 43.004628
9988 3 14.084524 2.53146 52.107519
9989 3 13.437141 7.731657 24.73961
9990 3 13.437141 16.703555 33.841689
9991 3 13.437141 7.468752 42.94458
9992 3 13.437141 16.440286 52.04666
9993 3 16.52121 5.030147 22.676082
9994 3 16.52121 14.001681 31.778973
9995 3 16.52121 4.766878 40.881053
9996 3 16.52121 13.738776 49.983943
9997 3 16.52121 4.503973 59.086023
9998 3 13.874835 7.527378 20.226302
9999 3 13.874835 16.498912 29.328382
10000 3 13.874835 7.264109 38.431273
10001 3 13.874835 16.236007 47.533352
10002 3 13.874835 7.001204 56.636243
10003 3 13.747885 3.012845 20.240097
10004 3 13.747885 11.984742 29.342177
10005 3 13.747885 2.74994 38.445068
10006 3 13.747885 11.721473 47.547147
10007 3 13.747885 2.486671 56.650038
10008 3 13.825571 11.90354 19.999907
10009 3 13.825571 2.668738 29.102798
10010 3 13.825571 11.640636 38.204877
10011 3 13.825571 2.405833 47.306957
10012 3 13.825571 11.377367 56.409848
10013 3 16.615949 9.406674 27.39063
10014 3 16.615949 0.171507 36.493521
10015 3 16.615949 9.143405 45.5956
10016 3 16.615949 18.115302 54.69768
10017 3 13.327244 16.22836 20.174369
10018 3 13.327244 6.993193 29.276449
10019 3 13.327244 15.965091 38.378528
10020 3 13.327244 6.730289 47.481419
10021 3 13.327244 15.702186 56.583499
10022 3 13.589987 16.820806 24.472641
10023 3 13.589987 7.586004 33.574721
10024 3 13.589987 16.557901 42.677612
10025 3 13.589987 7.322735 51.779691
10026 3 16.939956 0.779975 27.018984
10027 3 16.939956 9.751873 36.121063
10028 3 16.939956 0.51707 45.223954
10029 3 16.939956 9.488604 54.326034
10030 3 16.836375 14.678606 23.018516
10031 3 16.836375 5.443439 32.120595
10032 3 16.836375 14.415337 41.222675
10033 3 16.836375 5.180534 50.325566
10034 3 16.836375 14.152432 59.427645
10035 3 13.555881 2.748119 24.780994
10036 3 13.555881 11.720017 33.883073
10037 3 13.555881 2.485215 42.985964
10038 3 13.555881 11.456748 52.088044
10039 3 19.153058 7.956692 21.09537
10040 3 19.153058 16.928226 30.197449
10041 3 19.153058 7.693423 39.30034
10042 3 19.153058 16.665321 48.40242
10043 3 19.153058 7.430518 57.504499
10044 3 19.713281 12.022612 20.64907
10045 3 19.713281 2.78781 29.751149
10046 3 19.713281 11.759708 38.85404
10047 3 19.713281 2.524905 47.95612
10048 3 19.713281 11.496439 57.058199
10049 3 19.485276 7.607852 25.081232
10050 3 19.485276 16.579749 34.183311
10051 3 19.485276 7.344583 43.285391
10052 3 19.485276 16.31648 52.388282
10053 3 23.127041 14.197949 23.266009
10054 3 23.127041 4.963146 32.368089
10055 3 23.127041 13.935044 41.47098
10056 3 23.127041 4.700242 50.573059
10057 3 23.127041 13.671775 59.675139
10058 3 19.539593 12.0339 25.120181
10059 3 19.539593 2.798734 34.222261
10060 3 19.539593 11.770632 43.325152
10061 3 19.539593 2.535829 52.427231
10062 3 19.871811 3.066008 20.498139
10063 3 19.871811 12.037906 29.600219
10064 3 19.871811 2.803104 38.70311
10065 3 19.871811 11.774637 47.80519
10066 3 19.871811 2.539835 56.90808
10067 3 20.039814 16.246203 25.430968
10068 3 20.039814 7.0114 34.533859
10069 3 20.039814 15.982934 43.635939
10070 3 20.039814 6.748131 52.738018
10071 3 22.725348 5.254454 22.957657
10072 3 22.725348 14.225987 32.060548
10073 3 22.725348 4.991185 41.162627
10074 3 22.725348 13.963082 50.264707
10075 3 22.725348 4.72828 59.367598
10076 3 22.824508 9.155785 27.02223
10077 3 22.824508 18.127683 36.125121
10078 3 22.824508 8.892516 45.2272
10079 3 22.824508 17.864414 54.330091
10080 3 19.992445 2.248892 24.892974
10081 3 19.992445 11.220789 33.995865
10082 3 19.992445 1.985987 43.097945
10083 3 19.992445 10.957884 52.200836
10084 3 23.013354 0.68348 27.071728
10085 3 23.013354 9.655013 36.174619
10086 3 23.013354 0.420211 45.276699
10087 3 23.013354 9.392108 54.37959
10088 3 20.139606 16.685348 20.567925
10089 3 20.139606 7.450546 29.670816
10090 3 20.139606 16.422443 38.772895
10091 3 20.139606 7.187641 47.874975
10092 3 20.139606 16.159175 56.977866
10093 1 29.599606 10.004582 22.906535
10094 1 29.599606 0.769779 32.008614
10095 1 29.599606 9.741677 41.111505
10096 1 29.599606 0.506875 50.213585
10097 1 29.599606 9.478408 59.315664
10098 1 29.201071 14.243466 27.540749
10099 1 29.201071 5.008299 36.64364
10100 1 29.201071 13.980197 45.745719
10101 1 29.201071 4.745394 54.84861
10102 1 29.449918 5.262829 27.019795
10103 1 29.449918 14.234726 36.121875
10104 1 29.449918 4.999924 45.224766
10105 1 29.449918 13.971457 54.326845
10106 1 29.300231 0.39727 22.628206
10107 1 29.300231 9.369168 31.730286
10108 1 29.300231 0.134365 40.832365
10109 1 29.300231 9.106263 49.935256
10110 1 29.300231 36.284497 59.037336
10111 1 35.222047 9.7384 22.015558
10112 1 35.222047 0.503233 31.118449
10113 1 35.222047 9.475131 40.220529
10114 1 35.222047 0.240328 49.322608
10115 1 35.222047 9.212226 58.425499
10116 1 35.612371 14.169546 27.023041
10117 1 35.612371 4.934744 36.125932
10118 1 35.612371 13.906642 45.228012
10119 1 35.612371 4.671839 54.330091
10120 1 35.497421 4.805112 27.504233
10121 1 35.497421 13.77701 36.607124
10122 1 35.497421 4.542208 45.709204
10123 1 35.497421 13.513741 54.812095
10124 1 35.796796 0.282204 22.615223
10125 1 35.796796 9.254101 31.717302
10126 1 35.796796 0.019299 40.820193
10127 1 35.796796 8.991197 49.922273
10128 1 35.796796 17.96273 59.025164
10129 4 29.266125 10.059566 21.621192
10130 4 29.266125 0.824399 30.723271
10131 4 29.266125 9.796297 39.825351
10132 4 29.266125 0.561495 48.928242
10133 4 29.266125 9.533392 58.030321
10134 4 29.041278 9.217688 23.780471
10135 4 29.041278 36.396286 32.88255
10136 4 29.041278 8.954783 41.98463
10137 4 29.041278 36.133017 51.087521
10138 4 29.041278 8.691514 60.1896
10139 4 29.374127 13.392849 26.561324
10140 4 29.374127 4.158046 35.664215
10141 4 29.374127 13.129944 44.766294
10142 4 29.374127 3.895141 53.868374
10143 4 29.775189 15.468048 27.527765
10144 4 29.775189 6.233246 36.629845
10145 4 29.775189 15.205143 45.731925
10146 4 29.775189 5.969977 54.834816
10147 4 30.115617 5.163784 28.140413
10148 4 30.115617 14.135318 37.242493
10149 4 30.115617 4.900515 46.345384
10150 4 30.115617 13.872413 55.447463
10151 4 28.848642 4.25527 26.418508
10152 4 28.848642 13.227168 35.520587
10153 4 28.848642 3.992365 44.622667
10154 4 28.848642 12.963899 53.725558
10155 4 30.550153 36.409395 22.811595
10156 4 30.550153 8.967892 31.913674
10157 4 30.550153 36.14649 41.016565
10158 4 30.550153 8.704987 50.118645
10159 4 30.550153 35.883221 59.220724
10160 4 28.952223 1.074195 21.578996
10161 4 28.952223 10.046093 30.681076
10162 4 28.952223 0.811291 39.783155
10163 4 28.952223 9.783188 48.886046
10164 4 28.952223 0.548022 57.988126
10165 4 34.982041 9.860385 23.270878
10166 4 34.982041 0.625582 32.373769
10167 4 34.982041 9.597116 41.475848
10168 4 34.982041 0.362313 50.578739
10169 4 34.982041 9.334211 59.680819
10170 4 36.300176 9.208585 21.497851
10171 4 36.300176 36.386818 30.59993
10172 4 36.300176 8.945316 39.70201
10173 4 36.300176 36.123913 48.804901
10174 4 36.300176 8.682411 57.90698
10175 4 35.848587 15.291807 27.651918
10176 4 35.848587 6.056641 36.754809
10177 4 35.848587 15.028538 45.856888
10178 4 35.848587 5.793736 54.958968
10179 4 36.533234 13.250108 26.745524
10180 4 36.533234 4.015306 35.848415
10181 4 36.533234 12.987203 44.950494
10182 4 36.533234 3.752401 54.052574
10183 4 34.979515 5.839981 26.97192
10184 4 34.979515 14.811515 36.07481
10185 4 34.979515 5.576712 45.17689
10186 4 34.979515 14.54861 54.279781
10187 4 35.755743 4.60848 28.791199
10188 4 35.755743 13.580378 37.893279
10189 4 35.755743 4.345575 46.99617
10190 4 35.755743 13.317109 56.098249
10191 4 35.712163 35.780171 23.532977
10192 4 35.712163 8.338304 32.635057
10193 4 35.712163 35.516902 41.737948
10194 4 35.712163 8.0754 50.840027
10195 4 35.712163 17.047297 59.942918
10196 4 35.429841 1.54939 22.711786
10197 4 35.429841 10.521288 31.813866
10198 4 35.429841 1.286485 40.916756
10199 4 35.429841 10.258019 50.018836
10200 4 35.429841 19.229917 59.121727
10201 2 28.515792 9.443815 21.282816
10202 2 28.515792 0.209013 30.385706
10203 2 28.515792 9.180546 39.487786
10204 2 28.515792 36.359144 48.589866
10205 2 28.515792 8.917642 57.692756
10206 2 28.110941 8.805488 23.583288
10207 2 28.110941 35.983722 32.686179
10208 2 28.110941 8.54222 41.788258
10209 2 28.110941 35.720817 50.891149
10210 2 28.110941 8.279315 59.993229
10211 2 30.47752 10.538402 23.206773
10212 2 30.47752 1.303236 32.308852
10213 2 30.47752 10.275133 41.411743
10214 2 30.47752 1.040331 50.513823
10215 2 30.47752 10.012228 59.615902
10216 2 29.772031 10.673132 21.05642
10217 2 29.772031 1.437965 30.159311
10218 2 29.772031 10.409863 39.26139
10219 2 29.772031 1.17506 48.36347
10220 2 29.772031 10.146958 57.466361
10221 2 29.515604 9.040719 24.735552
10222 2 29.515604 36.218952 33.838443
10223 2 29.515604 8.77745 42.940523
10224 2 29.515604 35.956048 52.042602
10225 2 29.515604 8.514545 61.145493
10226 2 29.892034 13.713286 25.735264
10227 2 29.892034 4.478484 34.837343
10228 2 29.892034 13.450018 43.939423
10229 2 29.892034 4.215215 53.042314
10230 2 30.518574 15.515386 26.864808
10231 2 30.518574 6.280583 35.967699
10232 2 30.518574 15.252481 45.069778
10233 2 30.518574 6.017678 54.172669
10234 2 28.637058 14.011148 28.373301
10235 2 28.637058 4.775982 37.47538
10236 2 28.637058 13.747879 46.578271
10237 2 28.637058 4.513077 55.680351
10238 2 28.761482 12.604134 26.433926
10239 2 28.761482 3.369332 35.536005
10240 2 28.761482 12.34123 44.638896
10241 2 28.761482 3.106427 53.740976
10242 2 30.0253 15.828905 28.423611
10243 2 30.0253 6.594103 37.52569
10244 2 30.0253 15.566 46.62777
10245 2 30.0253 6.331198 55.730661
10246 2 28.96675 3.311435 26.855882
10247 2 28.96675 12.282968 35.957961
10248 2 28.96675 3.048166 45.060852
10249 2 28.96675 12.020063 54.162932
10250 2 28.138731 4.395097 25.725526
10251 2 28.138731 13.366995 34.827606
10252 2 28.138731 4.131828 43.929685
10253 2 28.138731 13.103726 53.032576
10254 2 29.346337 6.272936 26.611634
10255 2 29.346337 15.244834 35.714525
10256 2 29.346337 6.010032 44.816604
10257 2 29.346337 14.981565 53.919495
10258 2 30.19204 4.315352 28.663801
10259 2 30.19204 13.28725 37.765881
10260 2 30.19204 4.052447 46.868772
10261 2 30.19204 13.023981 55.970851
10262 2 30.504047 6.030423 28.536403
10263 2 30.504047 15.002321 37.639294
10264 2 30.504047 5.767518 46.741373
10265 2 30.504047 14.739416 55.844264
10266 2 31.360487 0.322987 22.343386
10267 2 31.360487 9.294884 31.445465
10268 2 31.360487 0.060082 40.548356
10269 2 31.360487 9.031616 49.650436
10270 2 31.360487 36.210213 58.752515
10271 2 28.100204 1.611657 21.612266
10272 2 28.100204 10.583555 30.715157
10273 2 28.100204 1.348388 39.817236
10274 2 28.100204 10.320286 48.920127
10275 2 28.100204 1.085483 58.022207
10276 2 28.518319 0.068821 23.319565
10277 2 28.518319 9.040355 32.422456
10278 2 28.518319 36.218952 41.524536
10279 2 28.518319 8.77745 50.626615
10280 2 28.518319 35.956048 59.729506
10281 2 29.578763 1.469281 20.887637
10282 2 29.578763 10.441178 29.990528
10283 2 29.578763 1.206376 39.092608
10284 2 29.578763 10.177909 48.194687
10285 2 29.578763 0.943107 57.297578
10286 2 30.765527 36.015402 23.697703
10287 2 30.765527 8.573535 32.799782
10288 2 30.765527 35.752133 41.902673
10289 2 30.765527 8.31063 51.004753
10290 2 30.765527 35.489228 60.106832
10291 2 34.070021 10.189926 23.469684
10292 2 34.070021 0.954759 32.571764
10293 2 34.070021 9.926657 41.674655
10294 2 34.070021 0.691855 50.776734
10295 2 34.070021 9.663752 59.879625
10296 2 35.416577 9.455832 24.032833
10297 2 35.416577 0.221029 33.134913
10298 2 35.416577 9.192927 42.236992
10299 2 35.416577 36.371525 51.339883
10300 2 35.416577 8.929658 60.441963
10301 2 37.054298 8.757059 21.992026
10302 2 37.054298 35.935292 31.094106
10303 2 37.054298 8.49379 40.196185
10304 2 37.054298 35.672387 49.299076
10305 2 37.054298 8.230885 58.401156
10306 2 34.534242 10.252921 21.411837
10307 2 34.534242 1.018119 30.514728
10308 2 34.534242 9.990016 39.616807
10309 2 34.534242 0.75485 48.719698
10310 2 34.534242 9.726747 57.821778
10311 2 36.245859 9.293064 20.450264
10312 2 36.245859 0.057897 29.552343
10313 2 36.245859 9.029795 38.655234
10314 2 36.245859 36.208393 47.757314
10315 2 36.245859 8.76689 56.859393
10316 2 35.084991 15.897726 27.642181
10317 2 35.084991 6.662924 36.745071
10318 2 35.084991 15.634822 45.847151
10319 2 35.084991 6.400019 54.950042
10320 2 36.811766 15.598408 27.928624
10321 2 36.811766 6.363606 37.030703
10322 2 36.811766 15.335503 46.133594
10323 2 36.811766 6.100701 55.235674
10324 2 37.483781 13.435452 27.110678
10325 2 37.483781 4.20065 36.212758
10326 2 37.483781 13.172183 45.314837
10327 2 37.483781 3.937381 54.417728
10328 2 34.640981 13.944512 26.58161
10329 2 34.640981 4.709709 35.68369
10330 2 34.640981 13.681607 44.786581
10331 2 34.640981 4.44644 53.88866
10332 2 36.249649 12.396942 26.306527
10333 2 36.249649 3.16214 35.409418
10334 2 36.249649 12.134037 44.511498
10335 2 36.249649 2.899235 53.614389
10336 2 36.484601 3.892592 28.982703
10337 2 36.484601 12.86449 38.084782
10338 2 36.484601 3.629688 47.187673
10339 2 36.484601 12.601585 56.289753
10340 2 35.458894 5.238796 29.569384
10341 2 35.458894 14.210693 38.671463
10342 2 35.458894 4.975891 47.774354
10343 2 35.458894 13.947789 56.876434
10344 2 34.803301 5.862193 25.966528
10345 2 34.803301 14.834091 35.068608
10346 2 34.803301 5.598924 44.171498
10347 2 34.803301 14.570822 53.273578
10348 2 34.698456 6.703343 27.576453
10349 2 34.698456 15.67524 36.679344
10350 2 34.698456 6.440074 45.781423
10351 2 34.698456 15.411972 54.883503
10352 2 35.744374 3.975615 26.871299
10353 2 35.744374 12.947513 35.973379
10354 2 35.744374 3.712346 45.075458
10355 2 35.744374 12.684244 54.178349
10356 2 36.227543 34.843254 23.313885
10357 2 36.227543 7.401752 32.415964
10358 2 36.227543 34.579985 41.518044
10359 2 36.227543 7.138483 50.620935
10360 2 36.227543 16.110381 59.723014
10361 2 35.809428 2.231049 22.130785
10362 2 35.809428 11.202947 31.232864
10363 2 35.809428 1.96778 40.334944
10364 2 35.809428 10.939678 49.437835
10365 2 35.809428 19.911575 58.539914
10366 2 35.326891 35.833335 24.484002
10367 2 35.326891 8.391468 33.586893
10368 2 35.326891 35.570066 42.688972
10369 2 35.326891 8.128563 51.791052
10370 2 35.326891 17.100461 60.893943
10371 2 34.755931 1.79336 23.436414
10372 2 34.755931 10.765258 32.538494
10373 2 34.755931 1.530455 41.641385
10374 2 34.755931 10.501989 50.743464
10375 2 34.755931 19.473886 59.846355
10376 2 36.204806 36.395557 21.622003
10377 2 36.204806 8.954055 30.724083
10378 2 36.204806 36.132653 39.826974
10379 2 36.204806 8.690786 48.929053
10380 2 36.204806 17.662684 58.031944
10381 6 26.202267 9.625882 26.984091
10382 6 26.202267 0.390716 36.086171
10383 6 26.202267 9.362613 45.189062
10384 6 26.202267 0.127811 54.291141
10385 6 26.043106 4.997739 22.703671
10386 6 26.043106 13.969637 31.806562
10387 6 26.043106 4.734834 40.908642
10388 6 26.043106 13.706368 50.010721
10389 6 26.043106 4.471566 59.113612
10390 6 26.442273 14.338869 22.722335
10391 6 26.442273 5.104066 31.825226
10392 6 26.442273 14.075964 40.927305
10393 6 26.442273 4.840797 50.030196
10394 6 26.442273 13.812695 59.132276
10395 6 26.627961 0.495951 26.885094
10396 6 26.627961 9.467484 35.987173
10397 6 26.627961 0.232682 45.090064
10398 6 26.627961 9.204579 54.192144
10399 6 32.743044 0.370324 27.562658
10400 6 32.743044 9.342222 36.664738
10401 6 32.743044 0.10742 45.766817
10402 6 32.743044 9.078953 54.869708
10403 6 32.630621 14.306097 22.822144
10404 6 32.630621 5.07093 31.925035
10405 6 32.630621 14.042828 41.027114
10406 6 32.630621 4.808025 50.130005
10407 6 32.630621 13.779923 59.232085
10408 6 32.238401 4.974799 22.948731
10409 6 32.238401 13.946696 32.05081
10410 6 32.238401 4.711894 41.153701
10411 6 32.238401 13.683427 50.255781
10412 6 32.238401 4.448625 59.35786
10413 6 32.546619 9.525017 27.427145
10414 6 32.546619 0.290215 36.529225
10415 6 32.546619 9.261748 45.632116
10416 6 32.546619 0.026946 54.734195
10417 3 26.716384 12.029531 24.800469
10418 3 26.716384 2.794364 33.902548
10419 3 26.716384 11.766262 43.004628
10420 3 26.716384 2.53146 52.107519
10421 3 26.069001 7.731657 24.73961
10422 3 26.069001 16.703555 33.841689
10423 3 26.069001 7.468752 42.94458
10424 3 26.069001 16.440286 52.04666
10425 3 29.15307 5.030147 22.676082
10426 3 29.15307 14.001681 31.778973
10427 3 29.15307 4.766878 40.881053
10428 3 29.15307 13.738776 49.983943
10429 3 29.15307 4.503973 59.086023
10430 3 26.506695 7.527378 20.226302
10431 3 26.506695 16.498912 29.328382
10432 3 26.506695 7.264109 38.431273
10433 3 26.506695 16.236007 47.533352
10434 3 26.506695 7.001204 56.636243
10435 3 26.379745 3.012845 20.240097
10436 3 26.379745 11.984742 29.342177
10437 3 26.379745 2.74994 38.445068
10438 3 26.379745 11.721473 47.547147
10439 3 26.379745 2.486671 56.650038
10440 3 26.457431 11.90354 19.999907
10441 3 26.457431 2.668738 29.102798
10442 3 26.457431 11.640636 38.204877
10443 3 26.457431 2.405833 47.306957
10444 3 26.457431 11.377367 56.409848
10445 3 29.247809 9.406674 27.39063
10446 3 29.247809 0.171507 36.493521
10447 3 29.247809 9.143405 45.5956
10448 3 29.247809 18.115302 54.69768
10449 3 25.959104 16.22836 20.174369
10450 3 25.959104 6.993193 29.276449
10451 3 25.959104 15.965091 38.378528
10452 3 25.959104 6.730289 47.481419
10453 3 25.959104 15.702186 56.583499
10454 3 26.221847 16.820806 24.472641
10455 3 26.221847 7.586004 33.574721
10456 3 26.221847 16.557901 42.677612
10457 3 26.221847 7.322735 51.779691
10458 3 29.571816 0.779975 27.018984
10459 3 29.571816 9.751873 36.121063
10460 3 29.571816 0.51707 45.223954
10461 3 29.571816 9.488604 54.326034
10462 3 29.468235 14.678606 23.018516
10463 3 29.468235 5.443439 32.120595
10464 3 29.468235 14.415337 41.222675
10465 3 29.468235 5.180534 50.325566
10466 3 29.468235 14.152432 59.427645
10467 3 26.187741 2.748119 24.780994
10468 3 26.187741 11.720017 33.883073
10469 3 26.187741 2.485215 42.985964
10470 3 26.187741 11.456748 52.088044
10471 3 31.784918 7.956692 21.09537
10472 3 31.784918 16.928226 30.197449
10473 3 31.784918 7.693423 39.30034
10474 3 31.784918 16.665321 48.40242
10475 3 31.784918 7.430518 57.504499
10476 3 32.345141 12.022612 20.64907
10477 3 32.345141 2.78781 29.751149
10478 3 32.345141 11.759708 38.85404
10479 3 32.345141 2.524905 47.95612
10480 3 32.345141 11.496439 57.058199
10481 3 32.117136 7.607852 25.081232
10482 3 32.117136 16.579749 34.183311
10483 3 32.117136 7.344583 43.285391
10484 3 32.117136 16.31648 52.388282
10485 3 35.758901 14.197949 23.266009
10486 3 35.758901 4.963146 32.368089
10487 3 35.758901 13.935044 41.47098
10488 3 35.758901 4.700242 50.573059
10489 3 35.758901 13.671775 59.675139
10490 3 32.171453 12.0339 25.120181
10491 3 32.171453 2.798734 34.222261
10492 3 32.171453 11.770632 43.325152
10493 3 32.171453 2.535829 52.427231
10494 3 32.503671 3.066008 20.498139
10495 3 32.503671 12.037906 29.600219
10496 3 32.503671 2.803104 38.70311
10497 3 32.503671 11.774637 47.80519
10498 3 32.503671 2.539835 56.90808
10499 3 32.671674 16.246203 25.430968
10500 3 32.671674 7.0114 34.533859
10501 3 32.671674 15.982934 43.635939
10502 3 32.671674 6.748131 52.738018
10503 3 35.357208 5.254454 22.957657
10504 3 35.357208 14.225987 32.060548
10505 3 35.357208 4.991185 41.162627
10506 3 35.357208 13.963082 50.264707
10507 3 35.357208 4.72828 59.367598
10508 3 35.456368 9.155785 27.02223
10509 3 35.456368 18.127683 36.125121
10510 3 35.456368 8.892516 45.2272
10511 3 35.456368 17.864414 54.330091
10512 3 32.624305 2.248892 24.892974
10513 3 32.624305 11.220789 33.995865
10514 3 32.624305 1.985987 43.097945
10515 3 32.624305 10.957884 52.200836
10516 3 35.645214 0.68348 27.071728
10517 3 35.645214 9.655013 36.174619
10518 3 35.645214 0.420211 45.276699
10519 3 35.645214 9.392108 54.37959
10520 3 32.771466 16.685348 20.567925
10521 3 32.771466 7.450546 29.670816
10522 3 32.771466 16.422443 38.772895
10523 3 32.771466 7.187641 47.874975
10524 3 32.771466 16.159175 56.977866
10525 1 42.231466 10.004582 22.906535
10526 1 42.231466 0.769779 32.008614
10527 1 42.231466 9.741677 41.111505
10528 1 42.231466 0.506875 50.213585
10529 1 42.231466 9.478408 59.315664
10530 1 41.832931 14.243466 27.540749
10531 1 41.832931 5.008299 36.64364
10532 1 41.832931 13.980197 45.745719
10533 1 41.832931 4.745394 54.84861
10534 1 42.081778 5.262829 27.019795
10535 1 42.081778 14.234726 36.121875
10536 1 42.081778 4.999924 45.224766
10537 1 42.081778 13.971457 54.326845
10538 1 41.932091 0.39727 22.628206
10539 1 41.932091 9.369168 31.730286
10540 1 41.932091 0.134365 40.832365
10541 1 41.932091 9.106263 49.935256
10542 1 41.932091 36.284497 59.037336
10543 1 47.853907 9.7384 22.015558
10544 1 47.853907 0.503233 31.118449
10545 1 47.853907 9.475131 40.220529
10546 1 47.853907 0.240328 49.322608
10547 1 47.853907 9.212226 58.425499
10548 1 48.244231 14.169546 27.023041
10549 1 48.244231 4.934744 36.125932
10550 1 48.244231 13.906642 45.228012
10551 1 48.244231 4.671839 54.330091
10552 1 48.129281 4.805112 27.504233
10553 1 48.129281 13.77701 36.607124
10554 1 48.129281 4.542208 45.709204
10555 1 48.129281 13.513741 54.812095
10556 1 48.428656 0.282204 22.615223
10557 1 48.428656 9.254101 31.717302
10558 1 48.428656 0.019299 40.820193
10559 1 48.428656 8.991197 49.922273
10560 1 48.428656 17.96273 59.025164
10561 4 41.897985 10.059566 21.621192
10562 4 41.897985 0.824399 30.723271
10563 4 41.897985 9.796297 39.825351
10564 4 41.897985 0.561495 48.928242
10565 4 41.897985 9.533392 58.030321
10566 4 41.673138 9.217688 23.780471
10567 4 41.673138 36.396286 32.88255
10568 4 41.673138 8.954783 41.98463
10569 4 41.673138 36.133017 51.087521
10570 4 41.673138 8.691514 60.1896
10571 4 42.005987 13.392849 26.561324
10572 4 42.005987 4.158046 35.664215
10573 4 42.005987 13.129944 44.766294
10574 4 42.005987 3.895141 53.868374
10575 4 42.407049 15.468048 27.527765
10576 4 42.407049 6.233246 36.629845
10577 4 42.407049 15.205143 45.731925
10578 4 42.407049 5.969977 54.834816
10579 4 42.747477 5.163784 28.140413
10580 4 42.747477 14.135318 37.242493
10581 4 42.747477 4.900515 46.345384
10582 4 42.747477 13.872413 55.447463
10583 4 41.480502 4.25527 26.418508
10584 4 41.480502 13.227168 35.520587
10585 4 41.480502 3.992365 44.622667
10586 4 41.480502 12.963899 53.725558
10587 4 43.182013 36.409395 22.811595
10588 4 43.182013 8.967892 31.913674
10589 4 43.182013 36.14649 41.016565
10590 4 43.182013 8.704987 50.118645
10591 4 43.182013 35.883221 59.220724
10592 4 41.584083 1.074195 21.578996
10593 4 41.584083 10.046093 30.681076
10594 4 41.584083 0.811291 39.783155
10595 4 41.584083 9.783188 48.886046
10596 4 41.584083 0.548022 57.988126
10597 4 47.613901 9.860385 23.270878
10598 4 47.613901 0.625582 32.373769
10599 4 47.613901 9.597116 41.475848
10600 4 47.613901 0.362313 50.578739
10601 4 47.613901 9.334211 59.680819
10602 4 48.932036 9.208585 21.497851
10603 4 48.932036 36.386818 30.59993
10604 4 48.932036 8.945316 39.70201
10605 4 48.932036 36.123913 48.804901
10606 4 48.932036 8.682411 57.90698
10607 4 48.480447 15.291807 27.651918
10608 4 48.480447 6.056641 36.754809
10609 4 48.480447 15.028538 45.856888
10610 4 48.480447 5.793736 54.958968
10611 4 49.165094 13.250108 26.745524
10612 4 49.165094 4.015306 35.848415
10613 4 49.165094 12.987203 44.950494
10614 4 49.165094 3.752401 54.052574
10615 4 47.611375 5.839981 26.97192
10616 4 47.611375 14.811515 36.07481
10617 4 47.611375 5.576712 45.17689
10618 4 47.611375 14.54861 54.279781
10619 4 48.387603 4.60848 28.791199
10620 4 48.387603 13.580378 37.893279
10621 4 48.387603 4.345575 46.99617
10622 4 48.387603 13.317109 56.098249
10623 4 48.344023 35.780171 23.532977
10624 4 48.344023 8.338304 32.635057
10625 4 48.344023 35.516902 41.737948
10626 4 48.344023 8.0754 50.840027
10627 4 48.344023 17.047297 59.942918
10628 4 48.061701 1.54939 22.711786
10629 4 48.061701 10.521288 31.813866
10630 4 48.061701 1.286485 40.916756
10631 4 48.061701 10.258019 50.018836
10632 4 48.061701 19.229917 59.121727
10633 2 41.147652 9.443815 21.282816
10634 2 41.147652 0.209013 30.385706
10635 2 41.147652 9.180546 39.487786
10636 2 41.147652 36.359144 48.589866
10637 2 41.147652 8.917642 57.692756
10638 2 40.742801 8.805488 23.583288
10639 2 40.742801 35.983722 32.686179
10640 2 40.742801 8.54222 41.788258
10641 2 40.742801 35.720817 50.891149
10642 2 40.742801 8.279315 59.993229
10643 2 43.10938 10.538402 23.206773
10644 2 43.10938 1.303236 32.308852
10645 2 43.10938 10.275133 41.411743
10646 2 43.10938 1.040331 50.513823
10647 2 43.10938 10.012228 59.615902
10648 2 42.403891 10.673132 21.05642
10649 2 42.403891 1.437965 30.159311
10650 2 42.403891 10.409863 39.26139
10651 2 42.403891 1.17506 48.36347
10652 2 42.403891 10.146958 57.466361
10653 2 42.147464 9.040719 24.735552
10654 2 42.147464 36.218952 33.838443
10655 2 42.147464 8.77745 42.940523
10656 2 42.147464 35.956048 52.042602
10657 2 42.147464 8.514545 61.145493
10658 2 42.523894 13.713286 25.735264
10659 2 42.523894 4.478484 34.837343
10660 2 42.523894 13.450018 43.939423
10661 2 42.523894 4.215215 53.042314
10662 2 43.150434 15.515386 26.864808
10663 2 43.150434 6.280583 35.967699
10664 2 43.150434 15.252481 45.069778
10665 2 43.150434 6.017678 54.172669
10666 2 41.268918 14.011148 28.373301
10667 2 41.268918 4.775982 37.47538
10668 2 41.268918 13.747879 46.578271
10669 2 41.268918 4.513077 55.680351
10670 2 41.393342 12.604134 26.433926
10671 2 41.393342 3.369332 35.536005
10672 2 41.393342 12.34123 44.638896
10673 2 41.393342 3.106427 53.740976
10674 2 42.65716 15.828905 28.423611
10675 2 42.65716 6.594103 37.52569
10676 2 42.65716 15.566 46.62777
10677 2 42.65716 6.331198 55.730661
10678 2 41.59861 3.311435 26.855882
10679 2 41.59861 12.282968 35.957961
10680 2 41.59861 3.048166 45.060852
10681 2 41.59861 12.020063 54.162932
10682 2 40.770591 4.395097 25.725526
10683 2 40.770591 13.366995 34.827606
10684 2 40.770591 4.131828 43.929685
10685 2 40.770591 13.103726 53.032576
10686 2 41.978197 6.272936 26.611634
10687 2 41.978197 15.244834 35.714525
10688 2 41.978197 6.010032 44.816604
10689 2 41.978197 14.981565 53.919495
10690 2 42.8239 4.315352 28.663801
10691 2 42.8239 13.28725 37.765881
10692 2 42.8239 4.052447 46.868772
10693 2 42.8239 13.023981 55.970851
10694 2 43.135907 6.030423 28.536403
10695 2 43.135907 15.002321 37.639294
10696 2 43.135907 5.767518 46.741373
10697 2 43.135907 14.739416 55.844264
10698 2 43.992347 0.322987 22.343386
10699 2 43.992347 9.294884 31.445465
10700 2 43.992347 0.060082 40.548356
10701 2 43.992347 9.031616 49.650436
10702 2 43.992347 36.210213 58.752515
10703 2 40.732064 1.611657 21.612266
10704 2 40.732064 10.583555 30.715157
10705 2 40.732064 1.348388 39.817236
10706 2 40.732064 10.320286 48.920127
10707 2 40.732064 1.085483 58.022207
10708 2 41.150179 0.068821 23.319565
10709 2 41.150179 9.040355 32.422456
10710 2 41.150179 36.218952 41.524536
10711 2 41.150179 8.77745 50.626615
10712 2 41.150179 35.956048 59.729506
10713 2 42.210623 1.469281 20.887637
10714 2 42.210623 10.441178 29.990528
10715 2 42.210623 1.206376 39.092608
10716 2 42.210623 10.177909 48.194687
10717 2 42.210623 0.943107 57.297578
10718 2 43.397387 36.015402 23.697703
10719 2 43.397387 8.573535 32.799782
10720 2 43.397387 35.752133 41.902673
10721 2 43.397387 8.31063 51.004753
10722 2 43.397387 35.489228 60.106832
10723 2 46.701881 10.189926 23.469684
10724 2 46.701881 0.954759 32.571764
10725 2 46.701881 9.926657 41.674655
10726 2 46.701881 0.691855 50.776734
10727 2 46.701881 9.663752 59.879625
10728 2 48.048437 9.455832 24.032833
10729 2 48.048437 0.221029 33.134913
10730 2 48.048437 9.192927 42.236992
10731 2 48.048437 36.371525 51.339883
10732 2 48.048437 8.929658 60.441963
10733 2 49.686158 8.757059 21.992026
10734 2 49.686158 35.935292 31.094106
10735 2 49.686158 8.49379 40.196185
10736 2 49.686158 35.672387 49.299076
10737 2 49.686158 8.230885 58.401156
10738 2 47.166102 10.252921 21.411837
10739 2 47.166102 1.018119 30.514728
10740 2 47.166102 9.990016 39.616807
10741 2 47.166102 0.75485 48.719698
10742 2 47.166102 9.726747 57.821778
10743 2 48.877719 9.293064 20.450264
10744 2 48.877719 0.057897 29.552343
10745 2 48.877719 9.029795 38.655234
10746 2 48.877719 36.208393 47.757314
10747 2 48.877719 8.76689 56.859393
10748 2 47.716851 15.897726 27.642181
10749 2 47.716851 6.662924 36.745071
10750 2 47.716851 15.634822 45.847151
10751 2 47.716851 6.400019 54.950042
10752 2 49.443626 15.598408 27.928624
10753 2 49.443626 6.363606 37.030703
10754 2 49.443626 15.335503 46.133594
10755 2 49.443626 6.100701 55.235674
10756 2 50.115641 13.435452 27.110678
10757 2 50.115641 4.20065 36.212758
10758 2 50.115641 13.172183 45.314837
10759 2 50.115641 3.937381 54.417728
10760 2 47.272841 13.944512 26.58161
10761 2 47.272841 4.709709 35.68369
10762 2 47.272841 13.681607 44.786581
10763 2 47.272841 4.44644 53.88866
10764 2 48.881509 12.396942 26.306527
10765 2 48.881509 3.16214 35.409418
10766 2 48.881509 12.134037 44.511498
10767 2 48.881509 2.899235 53.614389
10768 2 49.116461 3.892592 28.982703
10769 2 49.116461 12.86449 38.084782
10770 2 49.116461 3.629688 47.187673
10771 2 49.116461 12.601585 56.289753
10772 2 48.090754 5.238796 29.569384
10773 2 48.090754 14.210693 38.671463
10774 2 48.090754 4.975891 47.774354
10775 2 48.090754 13.947789 56.876434
10776 2 47.435161 5.862193 25.966528
10777 2 47.435161 14.834091 35.068608
10778 2 47.435161 5.598924 44.171498
10779 2 47.435161 14.570822 53.273578
10780 2 47.330316 6.703343 27.576453
10781 2 47.330316 15.67524 36.679344
10782 2 47.330316 6.440074 45.781423
10783 2 47.330316 15.411972 54.883503
10784 2 48.376234 3.975615 26.871299
10785 2 48.376234 12.947513 35.973379
10786 2 48.376234 3.712346 45.075458
10787 2 48.376234 12.684244 54.178349
10788 2 48.859403 34.843254 23.313885
10789 2 48.859403 7.401752 32.415964
10790 2 48.859403 34.579985 41.518044
10791 2 48.859403 7.138483 50.620935
10792 2 48.859403 16.110381 59.723014
10793 2 48.441288 2.231049 22.130785
10794 2 48.441288 11.202947 31.232864
10795 2 48.441288 1.96778 40.334944
10796 2 48.441288 10.939678 49.437835
10797 2 48.441288 19.911575 58.539914
10798 2 47.958751 35.833335 24.484002
10799 2 47.958751 8.391468 33.586893
10800 2 47.958751 35.570066 42.688972
10801 2 47.958751 8.128563 51.791052
10802 2 47.958751 17.100461 60.893943
10803 2 47.387791 1.79336 23.436414
10804 2 47.387791 10.765258 32.538494
10805 2 47.387791 1.530455 41.641385
10806 2 47.387791 10.501989 50.743464
10807 2 47.387791 19.473886 59.846355
10808 2 48.836666 36.395557 21.622003
10809 2 48.836666 8.954055 30.724083
10810 2 48.836666 36.132653 39.826974
10811 2 48.836666 8.690786 48.929053
10812 2 48.836666 17.662684 58.031944
10813 6 38.834127 9.625882 26.984091
10814 6 38.834127 0.390716 36.086171
10815 6 38.834127 9.362613 45.189062
10816 6 38.834127 0.127811 54.291141
10817 6 38.674966 4.997739 22.703671
10818 6 38.674966 13.969637 31.806562
10819 6 38.674966 4.734834 40.908642
10820 6 38.674966 13.706368 50.010721
10821 6 38.674966 4.471566 59.113612
10822 6 39.074133 14.338869 22.722335
10823 6 39.074133 5.104066 31.825226
10824 6 39.074133 14.075964 40.927305
10825 6 39.074133 4.840797 50.030196
10826 6 39.074133 13.812695 59.132276
10827 6 39.259821 0.495951 26.885094
10828 6 39.259821 9.467484 35.987173
10829 6 39.259821 0.232682 45.090064
10830 6 39.259821 9.204579 54.192144
10831 6 45.374904 0.370324 27.562658
10832 6 45.374904 9.342222 36.664738
10833 6 45.374904 0.10742 45.766817
10834 6 45.374904 9.078953 54.869708
10835 6 45.262481 14.306097 22.822144
10836 6 45.262481 5.07093 31.925035
10837 6 45.262481 14.042828 41.027114
10838 6 45.262481 4.808025 50.130005
10839 6 45.262481 13.779923 59.232085
10840 6 44.870261 4.974799 22.948731
10841 6 44.870261 13.946696 32.05081
10842 6 44.870261 4.711894 41.153701
10843 6 44.870261 13.683427 50.255781
10844 6 44.870261 4.448625 59.35786
10845 6 45.178479 9.525017 27.427145
10846 6 45.178479 0.290215 36.529225
10847 6 45.178479 9.261748 45.632116
10848 6 45.178479 0.026946 54.734195
10849 3 39.348244 12.029531 24.800469
10850 3 39.348244 2.794364 33.902548
10851 3 39.348244 11.766262 43.004628
10852 3 39.348244 2.53146 52.107519
10853 3 38.700861 7.731657 24.73961
10854 3 38.700861 16.703555 33.841689
10855 3 38.700861 7.468752 42.94458
10856 3 38.700861 16.440286 52.04666
10857 3 41.78493 5.030147 22.676082
10858 3 41.78493 14.001681 31.778973
10859 3 41.78493 4.766878 40.881053
10860 3 41.78493 13.738776 49.983943
10861 3 41.78493 4.503973 59.086023
10862 3 39.138555 7.527378 20.226302
10863 3 39.138555 16.498912 29.328382
10864 3 39.138555 7.264109 38.431273
10865 3 39.138555 16.236007 47.533352
10866 3 39.138555 7.001204 56.636243
10867 3 39.011605 3.012845 20.240097
10868 3 39.011605 11.984742 29.342177
10869 3 39.011605 2.74994 38.445068
10870 3 39.011605 11.721473 47.547147
10871 3 39.011605 2.486671 56.650038
10872 3 39.089291 11.90354 19.999907
10873 3 39.089291 2.668738 29.102798
10874 3 39.089291 11.640636 38.204877
10875 3 39.089291 2.405833 47.306957
10876 3 39.089291 11.377367 56.409848
10877 3 41.879669 9.406674 27.39063
10878 3 41.879669 0.171507 36.493521
10879 3 41.879669 9.143405 45.5956
10880 3 41.879669 18.115302 54.69768
10881 3 38.590964 16.22836 20.174369
10882 3 38.590964 6.993193 29.276449
10883 3 38.590964 15.965091 38.378528
10884 3 38.590964 6.730289 47.481419
10885 3 38.590964 15.702186 56.583499
10886 3 38.853707 16.820806 24.472641
10887 3 38.853707 7.586004 33.574721
10888 3 38.853707 16.557901 42.677612
10889 3 38.853707 7.322735 51.779691
10890 3 42.203676 0.779975 27.018984
10891 3 42.203676 9.751873 36.121063
10892 3 42.203676 0.51707 45.223954
10893 3 42.203676 9.488604 54.326034
10894 3 42.100095 14.678606 23.018516
10895 3 42.100095 5.443439 32.120595
10896 3 42.100095 14.415337 41.222675
10897 3 42.100095 5.180534 50.325566
10898 3 42.100095 14.152432 59.427645
10899 3 38.819601 2.748119 24.780994
10900 3 38.819601 11.720017 33.883073
10901 3 38.819601 2.485215 42.985964
10902 3 38.819601 11.456748 52.088044
10903 3 44.416778 7.956692 21.09537
10904 3 44.416778 16.928226 30.197449
10905 3 44.416778 7.693423 39.30034
10906 3 44.416778 16.665321 48.40242
10907 3 44.416778 7.430518 57.504499
10908 3 44.977001 12.022612 20.64907
10909 3 44.977001 2.78781 29.751149
10910 3 44.977001 11.759708 38.85404
10911 3 44.977001 2.524905 47.95612
10912 3 44.977001 11.496439 57.058199
10913 3 44.748996 7.607852 25.081232
10914 3 44.748996 16.579749 34.183311
10915 3 44.748996 7.344583 43.285391
10916 3 44.748996 16.31648 52.388282
10917 3 48.390761 14.197949 23.266009
10918 3 48.390761 4.963146 32.368089
10919 3 48.390761 13.935044 41.47098
10920 3 48.390761 4.700242 50.573059
10921 3 48.390761 13.671775 59.675139
10922 3 44.803313 12.0339 25.120181
10923 3 44.803313 2.798734 34.222261
10924 3 44.803313 11.770632 43.325152
10925 3 44.803313 2.535829 52.427231
10926 3 45.135531 3.066008 20.498139
10927 3 45.135531 12.037906 29.600219
10928 3 45.135531 2.803104 38.70311
10929 3 45.135531 11.774637 47.80519
10930 3 45.135531 2.539835 56.90808
10931 3 45.303534 16.246203 25.430968
10932 3 45.303534 7.0114 34.533859
10933 3 45.303534 15.982934 43.635939
10934 3 45.303534 6.748131 52.738018
10935 3 47.989068 5.254454 22.957657
10936 3 47.989068 14.225987 32.060548
10937 3 47.989068 4.991185 41.162627
10938 3 47.989068 13.963082 50.264707
10939 3 47.989068 4.72828 59.367598
10940 3 48.088228 9.155785 27.02223
10941 3 48.088228 18.127683 36.125121
10942 3 48.088228 8.892516 45.2272
10943 3 48.088228 17.864414 54.330091
10944 3 45.256165 2.248892 24.892974
10945 3 45.256165 11.220789 33.995865
10946 3 45.256165 1.985987 43.097945
10947 3 45.256165 10.957884 52.200836
10948 3 48.277074 0.68348 27.071728
10949 3 48.277074 9.655013 36.174619
10950 3 48.277074 0.420211 45.276699
10951 3 48.277074 9.392108 54.37959
10952 3 45.403326 16.685348 20.567925
10953 3 45.403326 7.450546 29.670816
10954 3 45.403326 16.422443 38.772895
10955 3 45.403326 7.187641 47.874975
10956 3 45.403326 16.159175 56.977866
10957 1 54.863326 10.004582 22.906535
10958 1 54.863326 0.769779 32.008614
10959 1 54.863326 9.741677 41.111505
10960 1 54.863326 0.506875 50.213585
10961 1 54.863326 9.478408 59.315664
10962 1 54.464791 14.243466 27.540749
10963 1 54.464791 5.008299 36.64364
10964 1 54.464791 13.980197 45.745719
10965 1 54.464791 4.745394 54.84861
10966 1 54.713638 5.262829 27.019795
10967 1 54.713638 14.234726 36.121875
10968 1 54.713638 4.999924 45.224766
10969 1 54.713638 13.971457 54.326845
10970 1 54.563951 0.39727 22.628206
10971 1 54.563951 9.369168 31.730286
10972 1 54.563951 0.134365 40.832365
10973 1 54.563951 9.106263 49.935256
10974 1 54.563951 36.284497 59.037336
10975 1 60.485767 9.7384 22.015558
10976 1 60.485767 0.503233 31.118449
10977 1 60.485767 9.475131 40.220529
10978 1 60.485767 0.240328 49.322608
10979 1 60.485767 9.212226 58.425499
10980 1 60.876091 14.169546 27.023041
10981 1 60.876091 4.934744 36.125932
10982 1 60.876091 13.906642 45.228012
10983 1 60.876091 4.671839 54.330091
10984 1 60.761141 4.805112 27.504233
10985 1 60.761141 13.77701 36.607124
10986 1 60.761141 4.542208 45.709204
10987 1 60.761141 13.513741 54.812095
10988 1 61.060516 0.282204 22.615223
10989 1 61.060516 9.254101 31.717302
10990 1 61.060516 0.019299 40.820193
10991 1 61.060516 8.991197 49.922273
10992 1 61.060516 17.96273 59.025164
10993 4 54.529845 10.059566 21.621192
10994 4 54.529845 0.824399 30.723271
10995 4 54.529845 9.796297 39.825351
10996 4 54.529845 0.561495 48.928242
10997 4 54.529845 9.533392 58.030321
10998 4 54.304998 9.217688 23.780471
10999 4 54.304998 36.396286 32.88255
11000 4 54.304998 8.954783 41.98463
11001 4 54.304998 36.133017 51.087521
11002 4 54.304998 8.691514 60.1896
11003 4 54.637847 13.392849 26.561324
11004 4 54.637847 4.158046 35.664215
11005 4 54.637847 13.129944 44.766294
11006 4 54.637847 3.895141 53.868374
11007 4 55.038909 15.468048 27.527765
11008 4 55.038909 6.233246 36.629845
11009 4 55.038909 15.205143 45.731925
11010 4 55.038909 5.969977 54.834816
11011 4 55.379337 5.163784 28.140413
11012 4 55.379337 14.135318 37.242493
11013 4 55.379337 4.900515 46.345384
11014 4 55.379337 13.872413 55.447463
11015 4 54.112362 4.25527 26.418508
11016 4 54.112362 13.227168 35.520587
11017 4 54.112362 3.992365 44.622667
11018 4 54.112362 12.963899 53.725558
11019 4 55.813873 36.409395 22.811595
11020 4 55.813873 8.967892 31.913674
11021 4 55.813873 36.14649 41.016565
11022 4 55.813873 8.704987 50.118645
11023 4 55.813873 35.883221 59.220724
11024 4 54.215943 1.074195 21.578996
11025 4 54.215943 10.046093 30.681076
11026 4 54.215943 0.811291 39.783155
11027 4 54.215943 9.783188 48.886046
11028 4 54.215943 0.548022 57.988126
11029 4 60.245761 9.860385 23.270878
11030 4 60.245761 0.625582 32.373769
11031 4 60.245761 9.597116 41.475848
11032 4 60.245761 0.362313 50.578739
11033 4 60.245761 9.334211 59.680819
11034 4 61.563896 9.208585 21.497851
11035 4 61.563896 36.386818 30.59993
11036 4 61.563896 8.945316 39.70201
11037 4 61.563896 36.123913 48.804901
11038 4 61.563896 8.682411 57.90698
11039 4 61.112307 15.291807 27.651918
11040 4 61.112307 6.056641 36.754809
11041 4 61.112307 15.028538 45.856888
11042 4 61.112307 5.793736 54.958968
11043 4 61.796954 13.250108 26.745524
11044 4 61.796954 4.015306 35.848415
11045 4 61.796954 12.987203 44.950494
11046 4 61.796954 3.752401 54.052574
11047 4 60.243235 5.839981 26.97192
11048 4 60.243235 14.811515 36.07481
11049 4 60.243235 5.576712 45.17689
11050 4 60.243235 14.54861 54.279781
11051 4 61.019463 4.60848 28.791199
11052 4 61.019463 13.580378 37.893279
11053 4 61.019463 4.345575 46.99617
11054 4 61.019463 13.317109 56.098249
11055 4 60.975883 35.780171 23.532977
11056 4 60.975883 8.338304 32.635057
11057 4 60.975883 35.516902 41.737948
11058 4 60.975883 8.0754 50.840027
11059 4 60.975883 17.047297 59.942918
11060 4 60.693561 1.54939 22.711786
11061 4 60.693561 10.521288 31.813866
11062 4 60.693561 1.286485 40.916756
11063 4 60.693561 10.258019 50.018836
11064 4 60.693561 19.229917 59.121727
11065 2 53.779512 9.443815 21.282816
11066 2 53.779512 0.209013 30.385706
11067 2 53.779512 9.180546 39.487786
11068 2 53.779512 36.359144 48.589866
11069 2 53.779512 8.917642 57.692756
11070 2 53.374661 8.805488 23.583288
11071 2 53.374661 35.983722 32.686179
11072 2 53.374661 8.54222 41.788258
11073 2 53.374661 35.720817 50.891149
11074 2 53.374661 8.279315 59.993229
11075 2 55.74124 10.538402 23.206773
11076 2 55.74124 1.303236 32.308852
11077 2 55.74124 10.275133 41.411743
11078 2 55.74124 1.040331 50.513823
11079 2 55.74124 10.012228 59.615902
11080 2 55.035751 10.673132 21.05642
11081 2 55.035751 1.437965 30.159311
11082 2 55.035751 10.409863 39.26139
11083 2 55.035751 1.17506 48.36347
11084 2 55.035751 10.146958 57.466361
11085 2 54.779324 9.040719 24.735552
11086 2 54.779324 36.218952 33.838443
11087 2 54.779324 8.77745 42.940523
11088 2 54.779324 35.956048 52.042602
11089 2 54.779324 8.514545 61.145493
11090 2 55.155754 13.713286 25.735264
11091 2 55.155754 4.478484 34.837343
11092 2 55.155754 13.450018 43.939423
11093 2 55.155754 4.215215 53.042314
11094 2 55.782294 15.515386 26.864808
11095 2 55.782294 6.280583 35.967699
11096 2 55.782294 15.252481 45.069778
11097 2 55.782294 6.017678 54.172669
11098 2 53.900778 14.011148 28.373301
11099 2 53.900778 4.775982 37.47538
11100 2 53.900778 13.747879 46.578271
11101 2 53.900778 4.513077 55.680351
11102 2 54.025202 12.604134 26.433926
11103 2 54.025202 3.369332 35.536005
11104 2 54.025202 12.34123 44.638896
11105 2 54.025202 3.106427 53.740976
11106 2 55.28902 15.828905 28.423611
11107 2 55.28902 6.594103 37.52569
11108 2 55.28902 15.566 46.62777
11109 2 55.28902 6.331198 55.730661
11110 2 54.23047 3.311435 26.855882
11111 2 54.23047 12.282968 35.957961
11112 2 54.23047 3.048166 45.060852
11113 2 54.23047 12.020063 54.162932
11114 2 53.402451 4.395097 25.725526
11115 2 53.402451 13.366995 34.827606
11116 2 53.402451 4.131828 43.929685
11117 2 53.402451 13.103726 53.032576
11118 2 54.610057 6.272936 26.611634
11119 2 54.610057 15.244834 35.714525
11120 2 54.610057 6.010032 44.816604
11121 2 54.610057 14.981565 53.919495
11122 2 55.45576 4.315352 28.663801
11123 2 55.45576 13.28725 37.765881
11124 2 55.45576 4.052447 46.868772
11125 2 55.45576 13.023981 55.970851
11126 2 55.767767 6.030423 28.536403
11127 2 55.767767 15.002321 37.639294
11128 2 55.767767 5.767518 46.741373
11129 2 55.767767 14.739416 55.844264
11130 2 56.624207 0.322987 22.343386
11131 2 56.624207 9.294884 31.445465
11132 2 56.624207 0.060082 40.548356
11133 2 56.624207 9.031616 49.650436
11134 2 56.624207 36.210213 58.752515
11135 2 53.363924 1.611657 21.612266
11136 2 53.363924 10.583555 30.715157
11137 2 53.363924 1.348388 39.817236
11138 2 53.363924 10.320286 48.920127
11139 2 53.363924 1.085483 58.022207
11140 2 53.782039 0.068821 23.319565
11141 2 53.782039 9.040355 32.422456
11142 2 53.782039 36.218952 41.524536
11143 2 53.782039 8.77745 50.626615
11144 2 53.782039 35.956048 59.729506
11145 2 54.842483 1.469281 20.887637
11146 2 54.842483 10.441178 29.990528
11147 2 54.842483 1.206376 39.092608
11148 2 54.842483 10.177909 48.194687
11149 2 54.842483 0.943107 57.297578
11150 2 56.029247 36.015402 23.697703
11151 2 56.029247 8.573535 32.799782
11152 2 56.029247 35.752133 41.902673
11153 2 56.029247 8.31063 51.004753
11154 2 56.029247 35.489228 60.106832
11155 2 59.333741 10.189926 23.469684
11156 2 59.333741 0.954759 32.571764
11157 2 59.333741 9.926657 41.674655
11158 2 59.333741 0.691855 50.776734
11159 2 59.333741 9.663752 59.879625
11160 2 60.680297 9.455832 24.032833
11161 2 60.680297 0.221029 33.134913
11162 2 60.680297 9.192927 42.236992
11163 2 60.680297 36.371525 51.339883
11164 2 60.680297 8.929658 60.441963
11165 2 62.318018 8.757059 21.992026
11166 2 62.318018 35.935292 31.094106
11167 2 62.318018 8.49379 40.196185
11168 2 62.318018 35.672387 49.299076
11169 2 62.318018 8.230885 58.401156
11170 2 59.797962 10.252921 21.411837
11171 2 59.797962 1.018119 30.514728
11172 2 59.797962 9.990016 39.616807
11173 2 59.797962 0.75485 48.719698
11174 2 59.797962 9.726747 57.821778
11175 2 61.509579 9.293064 20.450264
11176 2 61.509579 0.057897 29.552343
11177 2 61.509579 9.029795 38.655234
11178 2 61.509579 36.208393 47.757314
11179 2 61.509579 8.76689 56.859393
11180 2 60.348711 15.897726 27.642181
11181 2 60.348711 6.662924 36.745071
11182 2 60.348711 15.634822 45.847151
11183 2 60.348711 6.400019 54.950042
11184 2 62.075486 15.598408 27.928624
11185 2 62.075486 6.363606 37.030703
11186 2 62.075486 15.335503 46.133594
11187 2 62.075486 6.100701 55.235674
11188 2 62.747501 13.435452 27.110678
11189 2 62.747501 4.20065 36.212758
11190 2 62.747501 13.172183 45.314837
11191 2 62.747501 3.937381 54.417728
11192 2 59.904701 13.944512 26.58161
11193 2 59.904701 4.709709 35.68369
11194 2 59.904701 13.681607 44.786581
11195 2 59.904701 4.44644 53.88866
11196 2 61.513369 12.396942 26.306527
11197 2 61.513369 3.16214 35.409418
11198 2 61.513369 12.134037 44.511498
11199 2 61.513369 2.899235 53.614389
11200 2 61.748321 3.892592 28.982703
11201 2 61.748321 12.86449 38.084782
11202 2 61.748321 3.629688 47.187673
11203 2 61.748321 12.601585 56.289753
11204 2 60.722614 5.238796 29.569384
11205 2 60.722614 14.210693 38.671463
11206 2 60.722614 4.975891 47.774354
11207 2 60.722614 13.947789 56.876434
11208 2 60.067021 5.862193 25.966528
11209 2 60.067021 14.834091 35.068608
11210 2 60.067021 5.598924 44.171498
11211 2 60.067021 14.570822 53.273578
11212 2 59.962176 6.703343 27.576453
11213 2 59.962176 15.67524 36.679344
11214 2 59.962176 6.440074 45.781423
11215 2 59.962176 15.411972 54.883503
11216 2 61.008094 3.975615 26.871299
11217 2 61.008094 12.947513 35.973379
11218 2 61.008094 3.712346 45.075458
11219 2 61.008094 12.684244 54.178349
11220 2 61.491263 34.843254 23.313885
11221 2 61.491263 7.401752 32.415964
11222 2 61.491263 34.579985 41.518044
11223 2 61.491263 7.138483 50.620935
11224 2 61.491263 16.110381 59.723014
11225 2 61.073148 2.231049 22.130785
11226 2 61.073148 11.202947 31.232864
11227 2 61.073148 1.96778 40.334944
11228 2 61.073148 10.939678 49.437835
11229 2 61.073148 19.911575 58.539914
11230 2 60.590611 35.833335 24.484002
11231 2 60.590611 8.391468 33.586893
11232 2 60.590611 35.570066 42.688972
11233 2 60.590611 8.128563 51.791052
11234 2 60.590611 17.100461 60.893943
11235 2 60.019651 1.79336 23.436414
11236 2 60.019651 10.765258 32.538494
11237 2 60.019651 1.530455 41.641385
11238 2 60.019651 10.501989 50.743464
11239 2 60.019651 19.473886 59.846355
11240 2 61.468526 36.395557 21.622003
11241 2 61.468526 8.954055 30.724083
11242 2 61.468526 36.132653 39.826974
11243 2 61.468526 8.690786 48.929053
11244 2 61.468526 17.662684 58.031944
11245 6 51.465987 9.625882 26.984091
11246 6 51.465987 0.390716 36.086171
11247 6 51.465987 9.362613 45.189062
11248 6 51.465987 0.127811 54.291141
11249 6 51.306826 4.997739 22.703671
11250 6 51.306826 13.969637 31.806562
11251 6 51.306826 4.734834 40.908642
11252 6 51.306826 13.706368 50.010721
11253 6 51.306826 4.471566 59.113612
11254 6 51.705993 14.338869 22.722335
11255 6 51.705993 5.104066 31.825226
11256 6 51.705993 14.075964 40.927305
11257 6 51.705993 4.840797 50.030196
11258 6 51.705993 13.812695 59.132276
11259 6 51.891681 0.495951 26.885094
11260 6 51.891681 9.467484 35.987173
11261 6 51.891681 0.232682 45.090064
11262 6 51.891681 9.204579 54.192144
11263 6 58.006764 0.370324 27.562658
11264 6 58.006764 9.342222 36.664738
11265 6 58.006764 0.10742 45.766817
11266 6 58.006764 9.078953 54.869708
11267 6 57.894341 14.306097 22.822144
11268 6 57.894341 5.07093 31.925035
11269 6 57.894341 14.042828 41.027114
11270 6 57.894341 4.808025 50.130005
11271 6 57.894341 13.779923 59.232085
11272 6 57.502121 4.974799 22.948731
11273 6 57.502121 13.946696 32.05081
11274 6 57.502121 4.711894 41.153701
11275 6 57.502121 13.683427 50.255781
11276 6 57.502121 4.448625 59.35786
11277 6 57.810339 9.525017 27.427145
11278 6 57.810339 0.290215 36.529225
11279 6 57.810339 9.261748 45.632116
11280 6 57.810339 0.026946 54.734195
11281 3 51.980104 12.029531 24.800469
11282 3 51.980104 2.794364 33.902548
11283 3 51.980104 11.766262 43.004628
11284 3 51.980104 2.53146 52.107519
11285 3 51.332721 7.731657 24.73961
11286 3 51.332721 16.703555 33.841689
11287 3 51.332721 7.468752 42.94458
11288 3 51.332721 16.440286 52.04666
11289 3 54.41679 5.030147 22.676082
11290 3 54.41679 14.001681 31.778973
11291 3 54.41679 4.766878 40.881053
11292 3 54.41679 13.738776 49.983943
11293 3 54.41679 4.503973 59.086023
11294 3 51.770415 7.527378 20.226302
11295 3 51.770415 16.498912 29.328382
11296 3 51.770415 7.264109 38.431273
11297 3 51.770415 16.236007 47.533352
11298 3 51.770415 7.001204 56.636243
11299 3 51.643465 3.012845 20.240097
11300 3 51.643465 11.984742 29.342177
11301 3 51.643465 2.74994 38.445068
11302 3 51.643465 11.721473 47.547147
11303 3 51.643465 2.486671 56.650038
11304 3 51.721151 11.90354 19.999907
11305 3 51.721151 2.668738 29.102798
11306 3 51.721151 11.640636 38.204877
11307 3 51.721151 2.405833 47.306957
11308 3 51.721151 11.377367 56.409848
11309 3 54.511529 9.406674 27.39063
11310 3 54.511529 0.171507 36.493521
11311 3 54.511529 9.143405 45.5956
11312 3 54.511529 18.115302 54.69768
11313 3 51.222824 16.22836 20.174369
11314 3 51.222824 6.993193 29.276449
11315 3 51.222824 15.965091 38.378528
11316 3 51.222824 6.730289 47.481419
11317 3 51.222824 15.702186 56.583499
11318 3 51.485567 16.820806 24.472641
11319 3 51.485567 7.586004 33.574721
11320 3 51.485567 16.557901 42.677612
11321 3 51.485567 7.322735 51.779691
11322 3 54.835536 0.779975 27.018984
11323 3 54.835536 9.751873 36.121063
11324 3 54.835536 0.51707 45.223954
11325 3 54.835536 9.488604 54.326034
11326 3 54.731955 14.678606 23.018516
11327 3 54.731955 5.443439 32.120595
11328 3 54.731955 14.415337 41.222675
11329 3 54.731955 5.180534 50.325566
11330 3 54.731955 14.152432 59.427645
11331 3 51.451461 2.748119 24.780994
11332 3 51.451461 11.720017 33.883073
11333 3 51.451461 2.485215 42.985964
11334 3 51.451461 11.456748 52.088044
11335 3 57.048638 7.956692 21.09537
11336 3 57.048638 16.928226 30.197449
11337 3 57.048638 7.693423 39.30034
11338 3 57.048638 16.665321 48.40242
11339 3 57.048638 7.430518 57.504499
11340 3 57.608861 12.022612 20.64907
11341 3 57.608861 2.78781 29.751149
11342 3 57.608861 11.759708 38.85404
11343 3 57.608861 2.524905 47.95612
11344 3 57.608861 11.496439 57.058199
11345 3 57.380856 7.607852 25.081232
11346 3 57.380856 16.579749 34.183311
11347 3 57.380856 7.344583 43.285391
11348 3 57.380856 16.31648 52.388282
11349 3 61.022621 14.197949 23.266009
11350 3 61.022621 4.963146 32.368089
11351 3 61.022621 13.935044 41.47098
11352 3 61.022621 4.700242 50.573059
11353 3 61.022621 13.671775 59.675139
11354 3 57.435173 12.0339 25.120181
11355 3 57.435173 2.798734 34.222261
11356 3 57.435173 11.770632 43.325152
11357 3 57.435173 2.535829 52.427231
11358 3 57.767391 3.066008 20.498139
11359 3 57.767391 12.037906 29.600219
11360 3 57.767391 2.803104 38.70311
11361 3 57.767391 11.774637 47.80519
11362 3 57.767391 2.539835 56.90808
11363 3 57.935394 16.246203 25.430968
11364 3 57.935394 7.0114 34.533859
11365 3 57.935394 15.982934 43.635939
11366 3 57.935394 6.748131 52.738018
11367 3 60.620928 5.254454 22.957657
11368 3 60.620928 14.225987 32.060548
11369 3 60.620928 4.991185 41.162627
11370 3 60.620928 13.963082 50.264707
11371 3 60.620928 4.72828 59.367598
11372 3 60.720088 9.155785 27.02223
11373 3 60.720088 18.127683 36.125121
11374 3 60.720088 8.892516 45.2272
11375 3 60.720088 17.864414 54.330091
11376 3 57.888025 2.248892 24.892974
11377 3 57.888025 11.220789 33.995865
11378 3 57.888025 1.985987 43.097945
11379 3 57.888025 10.957884 52.200836
11380 3 60.908934 0.68348 27.071728
11381 3 60.908934 9.655013 36.174619
11382 3 60.908934 0.420211 45.276699
11383 3 60.908934 9.392108 54.37959
11384 3 58.035186 16.685348 20.567925
11385 3 58.035186 7.450546 29.670816
11386 3 58.035186 16.422443 38.772895
11387 3 58.035186 7.187641 47.874975
11388 3 58.035186 16.159175 56.977866
11389 1 4.335886 28.211282 22.906535
11390 1 4.335886 18.976479 32.008614
11391 1 4.335886 27.948377 41.111505
11392 1 4.335886 18.713575 50.213585
11393 1 4.335886 27.685108 59.315664
11394 1 3.937351 32.450166 27.540749
11395 1 3.937351 23.214999 36.64364
11396 1 3.937351 32.186897 45.745719
11397 1 3.937351 22.952094 54.84861
11398 1 4.186198 23.469529 27.019795
11399 1 4.186198 32.441426 36.121875
11400 1 4.186198 23.206624 45.224766
11401 1 4.186198 32.178157 54.326845
11402 1 4.036511 18.60397 22.628206
11403 1 4.036511 27.575868 31.730286
11404 1 4.036511 18.341065 40.832365
11405 1 4.036511 27.312963 49.935256
11406 1 4.036511 18.077797 59.037336
11407 1 9.958327 27.9451 22.015558
11408 1 9.958327 18.709933 31.118449
11409 1 9.958327 27.681831 40.220529
11410 1 9.958327 18.447028 49.322608
11411 1 9.958327 27.418926 58.425499
11412 1 10.348651 32.376246 27.023041
11413 1 10.348651 23.141444 36.125932
11414 1 10.348651 32.113342 45.228012
11415 1 10.348651 22.878539 54.330091
11416 1 10.233701 23.011812 27.504233
11417 1 10.233701 31.98371 36.607124
11418 1 10.233701 22.748908 45.709204
11419 1 10.233701 31.720441 54.812095
11420 1 10.533076 18.488904 22.615223
11421 1 10.533076 27.460801 31.717302
11422 1 10.533076 18.225999 40.820193
11423 1 10.533076 27.197897 49.922273
11424 1 10.533076 36.16943 59.025164
11425 4 4.002405 28.266266 21.621192
11426 4 4.002405 19.031099 30.723271
11427 4 4.002405 28.002997 39.825351
11428 4 4.002405 18.768195 48.928242
11429 4 4.002405 27.740092 58.030321
11430 4 3.777558 27.424388 23.780471
11431 4 3.777558 18.189586 32.88255
11432 4 3.777558 27.161483 41.98463
11433 4 3.777558 17.926317 51.087521
11434 4 3.777558 26.898214 60.1896
11435 4 4.110407 31.599549 26.561324
11436 4 4.110407 22.364746 35.664215
11437 4 4.110407 31.336644 44.766294
11438 4 4.110407 22.101841 53.868374
11439 4 4.511469 33.674748 27.527765
11440 4 4.511469 24.439946 36.629845
11441 4 4.511469 33.411843 45.731925
11442 4 4.511469 24.176677 54.834816
11443 4 4.851897 23.370484 28.140413
11444 4 4.851897 32.342018 37.242493
11445 4 4.851897 23.107215 46.345384
11446 4 4.851897 32.079113 55.447463
11447 4 3.584922 22.46197 26.418508
11448 4 3.584922 31.433868 35.520587
11449 4 3.584922 22.199065 44.622667
11450 4 3.584922 31.170599 53.725558
11451 4 5.286433 18.202695 22.811595
11452 4 5.286433 27.174592 31.913674
11453 4 5.286433 17.93979 41.016565
11454 4 5.286433 26.911687 50.118645
11455 4 5.286433 17.676521 59.220724
11456 4 3.688503 19.280895 21.578996
11457 4 3.688503 28.252793 30.681076
11458 4 3.688503 19.017991 39.783155
11459 4 3.688503 27.989888 48.886046
11460 4 3.688503 18.754722 57.988126
11461 4 9.718321 28.067085 23.270878
11462 4 9.718321 18.832282 32.373769
11463 4 9.718321 27.803816 41.475848
11464 4 9.718321 18.569013 50.578739
11465 4 9.718321 27.540911 59.680819
11466 4 11.036456 27.415285 21.497851
11467 4 11.036456 18.180118 30.59993
11468 4 11.036456 27.152016 39.70201
11469 4 11.036456 17.917213 48.804901
11470 4 11.036456 26.889111 57.90698
11471 4 10.584867 33.498507 27.651918
11472 4 10.584867 24.263341 36.754809
11473 4 10.584867 33.235238 45.856888
11474 4 10.584867 24.000436 54.958968
11475 4 11.269514 31.456808 26.745524
11476 4 11.269514 22.222006 35.848415
11477 4 11.269514 31.193903 44.950494
11478 4 11.269514 21.959101 54.052574
11479 4 9.715795 24.046681 26.97192
11480 4 9.715795 33.018215 36.07481
11481 4 9.715795 23.783412 45.17689
11482 4 9.715795 32.75531 54.279781
11483 4 10.492023 22.81518 28.791199
11484 4 10.492023 31.787078 37.893279
11485 4 10.492023 22.552275 46.99617
11486 4 10.492023 31.523809 56.098249
11487 4 10.448443 17.573471 23.532977
11488 4 10.448443 26.545004 32.635057
11489 4 10.448443 17.310202 41.737948
11490 4 10.448443 26.2821 50.840027
11491 4 10.448443 35.253997 59.942918
11492 4 10.166121 19.75609 22.711786
11493 4 10.166121 28.727988 31.813866
11494 4 10.166121 19.493185 40.916756
11495 4 10.166121 28.464719 50.018836
11496 4 10.166121 1.023217 59.121727
11497 2 3.252072 27.650515 21.282816
11498 2 3.252072 18.415713 30.385706
11499 2 3.252072 27.387246 39.487786
11500 2 3.252072 18.152444 48.589866
11501 2 3.252072 27.124342 57.692756
11502 2 2.847221 27.012188 23.583288
11503 2 2.847221 17.777022 32.686179
11504 2 2.847221 26.74892 41.788258
11505 2 2.847221 17.514117 50.891149
11506 2 2.847221 26.486015 59.993229
11507 2 5.2138 28.745102 23.206773
11508 2 5.2138 19.509936 32.308852
11509 2 5.2138 28.481833 41.411743
11510 2 5.2138 19.247031 50.513823
11511 2 5.2138 28.218928 59.615902
11512 2 4.508311 28.879832 21.05642
11513 2 4.508311 19.644665 30.159311
11514 2 4.508311 28.616563 39.26139
11515 2 4.508311 19.38176 48.36347
11516 2 4.508311 28.353658 57.466361
11517 2 4.251884 27.247419 24.735552
11518 2 4.251884 18.012252 33.838443
11519 2 4.251884 26.98415 42.940523
11520 2 4.251884 17.749348 52.042602
11521 2 4.251884 26.721245 61.145493
11522 2 4.628314 31.919986 25.735264
11523 2 4.628314 22.685184 34.837343
11524 2 4.628314 31.656718 43.939423
11525 2 4.628314 22.421915 53.042314
11526 2 5.254854 33.722086 26.864808
11527 2 5.254854 24.487283 35.967699
11528 2 5.254854 33.459181 45.069778
11529 2 5.254854 24.224378 54.172669
11530 2 3.373338 32.217848 28.373301
11531 2 3.373338 22.982682 37.47538
11532 2 3.373338 31.954579 46.578271
11533 2 3.373338 22.719777 55.680351
11534 2 3.497762 30.810834 26.433926
11535 2 3.497762 21.576032 35.536005
11536 2 3.497762 30.54793 44.638896
11537 2 3.497762 21.313127 53.740976
11538 2 4.76158 34.035605 28.423611
11539 2 4.76158 24.800803 37.52569
11540 2 4.76158 33.7727 46.62777
11541 2 4.76158 24.537898 55.730661
11542 2 3.70303 21.518135 26.855882
11543 2 3.70303 30.489668 35.957961
11544 2 3.70303 21.254866 45.060852
11545 2 3.70303 30.226763 54.162932
11546 2 2.875011 22.601797 25.725526
11547 2 2.875011 31.573695 34.827606
11548 2 2.875011 22.338528 43.929685
11549 2 2.875011 31.310426 53.032576
11550 2 4.082617 24.479636 26.611634
11551 2 4.082617 33.451534 35.714525
11552 2 4.082617 24.216732 44.816604
11553 2 4.082617 33.188265 53.919495
11554 2 4.92832 22.522052 28.663801
11555 2 4.92832 31.49395 37.765881
11556 2 4.92832 22.259147 46.868772
11557 2 4.92832 31.230681 55.970851
11558 2 5.240327 24.237123 28.536403
11559 2 5.240327 33.209021 37.639294
11560 2 5.240327 23.974218 46.741373
11561 2 5.240327 32.946116 55.844264
11562 2 6.096767 18.529687 22.343386
11563 2 6.096767 27.501584 31.445465
11564 2 6.096767 18.266782 40.548356
11565 2 6.096767 27.238316 49.650436
11566 2 6.096767 18.003513 58.752515
11567 2 2.836484 19.818357 21.612266
11568 2 2.836484 28.790255 30.715157
11569 2 2.836484 19.555088 39.817236
11570 2 2.836484 28.526986 48.920127
11571 2 2.836484 19.292183 58.022207
11572 2 3.254599 18.275521 23.319565
11573 2 3.254599 27.247055 32.422456
11574 2 3.254599 18.012252 41.524536
11575 2 3.254599 26.98415 50.626615
11576 2 3.254599 17.749348 59.729506
11577 2 4.315043 19.675981 20.887637
11578 2 4.315043 28.647878 29.990528
11579 2 4.315043 19.413076 39.092608
11580 2 4.315043 28.384609 48.194687
11581 2 4.315043 19.149807 57.297578
11582 2 5.501807 17.808702 23.697703
11583 2 5.501807 26.780235 32.799782
11584 2 5.501807 17.545433 41.902673
11585 2 5.501807 26.51733 51.004753
11586 2 5.501807 17.282528 60.106832
11587 2 8.806301 28.396626 23.469684
11588 2 8.806301 19.161459 32.571764
11589 2 8.806301 28.133357 41.674655
11590 2 8.806301 18.898555 50.776734
11591 2 8.806301 27.870452 59.879625
11592 2 10.152857 27.662532 24.032833
11593 2 10.152857 18.427729 33.134913
11594 2 10.152857 27.399627 42.236992
11595 2 10.152857 18.164825 51.339883
11596 2 10.152857 27.136358 60.441963
11597 2 11.790578 26.963759 21.992026
11598 2 11.790578 17.728592 31.094106
11599 2 11.790578 26.70049 40.196185
11600 2 11.790578 17.465687 49.299076
11601 2 11.790578 26.437585 58.401156
11602 2 9.270522 28.459621 21.411837
11603 2 9.270522 19.224819 30.514728
11604 2 9.270522 28.196716 39.616807
11605 2 9.270522 18.96155 48.719698
11606 2 9.270522 27.933447 57.821778
11607 2 10.982139 27.499764 20.450264
11608 2 10.982139 18.264597 29.552343
11609 2 10.982139 27.236495 38.655234
11610 2 10.982139 18.001693 47.757314
11611 2 10.982139 26.97359 56.859393
11612 2 9.821271 34.104426 27.642181
11613 2 9.821271 24.869624 36.745071
11614 2 9.821271 33.841522 45.847151
11615 2 9.821271 24.606719 54.950042
11616 2 11.548046 33.805108 27.928624
11617 2 11.548046 24.570306 37.030703
11618 2 11.548046 33.542203 46.133594
11619 2 11.548046 24.307401 55.235674
11620 2 12.220061 31.642152 27.110678
11621 2 12.220061 22.40735 36.212758
11622 2 12.220061 31.378883 45.314837
11623 2 12.220061 22.144081 54.417728
11624 2 9.377261 32.151212 26.58161
11625 2 9.377261 22.916409 35.68369
11626 2 9.377261 31.888307 44.786581
11627 2 9.377261 22.65314 53.88866
11628 2 10.985929 30.603642 26.306527
11629 2 10.985929 21.36884 35.409418
11630 2 10.985929 30.340737 44.511498
11631 2 10.985929 21.105935 53.614389
11632 2 11.220881 22.099292 28.982703
11633 2 11.220881 31.07119 38.084782
11634 2 11.220881 21.836388 47.187673
11635 2 11.220881 30.808285 56.289753
11636 2 10.195174 23.445496 29.569384
11637 2 10.195174 32.417393 38.671463
11638 2 10.195174 23.182591 47.774354
11639 2 10.195174 32.154489 56.876434
11640 2 9.539581 24.068893 25.966528
11641 2 9.539581 33.040791 35.068608
11642 2 9.539581 23.805624 44.171498
11643 2 9.539581 32.777522 53.273578
11644 2 9.434736 24.910043 27.576453
11645 2 9.434736 33.88194 36.679344
11646 2 9.434736 24.646774 45.781423
11647 2 9.434736 33.618672 54.883503
11648 2 10.480654 22.182315 26.871299
11649 2 10.480654 31.154213 35.973379
11650 2 10.480654 21.919046 45.075458
11651 2 10.480654 30.890944 54.178349
11652 2 10.963823 16.636554 23.313885
11653 2 10.963823 25.608452 32.415964
11654 2 10.963823 16.373285 41.518044
11655 2 10.963823 25.345183 50.620935
11656 2 10.963823 34.317081 59.723014
11657 2 10.545708 20.437749 22.130785
11658 2 10.545708 29.409647 31.232864
11659 2 10.545708 20.17448 40.334944
11660 2 10.545708 29.146378 49.437835
11661 2 10.545708 1.704875 58.539914
11662 2 10.063171 17.626635 24.484002
11663 2 10.063171 26.598168 33.586893
11664 2 10.063171 17.363366 42.688972
11665 2 10.063171 26.335263 51.791052
11666 2 10.063171 35.307161 60.893943
11667 2 9.492211 20.00006 23.436414
11668 2 9.492211 28.971958 32.538494
11669 2 9.492211 19.737155 41.641385
11670 2 9.492211 28.708689 50.743464
11671 2 9.492211 1.267186 59.846355
11672 2 10.941086 18.188857 21.622003
11673 2 10.941086 27.160755 30.724083
11674 2 10.941086 17.925953 39.826974
11675 2 10.941086 26.897486 48.929053
11676 2 10.941086 35.869384 58.031944
11677 6 0.938547 27.832582 26.984091
11678 6 0.938547 18.597416 36.086171
11679 6 0.938547 27.569313 45.189062
11680 6 0.938547 18.334511 54.291141
11681 6 0.779386 23.204439 22.703671
11682 6 0.779386 32.176337 31.806562
11683 6 0.779386 22.941534 40.908642
11684 6 0.779386 31.913068 50.010721
11685 6 0.779386 22.678266 59.113612
11686 6 1.178553 32.545569 22.722335
11687 6 1.178553 23.310766 31.825226
11688 6 1.178553 32.282664 40.927305
11689 6 1.178553 23.047497 50.030196
11690 6 1.178553 32.019395 59.132276
11691 6 1.364241 18.702651 26.885094
11692 6 1.364241 27.674184 35.987173
11693 6 1.364241 18.439382 45.090064
11694 6 1.364241 27.411279 54.192144
11695 6 7.479324 18.577024 27.562658
11696 6 7.479324 27.548922 36.664738
11697 6 7.479324 18.31412 45.766817
11698 6 7.479324 27.285653 54.869708
11699 6 7.366901 32.512797 22.822144
11700 6 7.366901 23.27763 31.925035
11701 6 7.366901 32.249528 41.027114
11702 6 7.366901 23.014725 50.130005
11703 6 7.366901 31.986623 59.232085
11704 6 6.974681 23.181499 22.948731
11705 6 6.974681 32.153396 32.05081
11706 6 6.974681 22.918594 41.153701
11707 6 6.974681 31.890127 50.255781
11708 6 6.974681 22.655325 59.35786
11709 6 7.282899 27.731717 27.427145
11710 6 7.282899 18.496915 36.529225
11711 6 7.282899 27.468448 45.632116
11712 6 7.282899 18.233646 54.734195
11713 3 1.452664 30.236231 24.800469
11714 3 1.452664 21.001064 33.902548
11715 3 1.452664 29.972962 43.004628
11716 3 1.452664 20.73816 52.107519
11717 3 0.805281 25.938357 24.73961
11718 3 0.805281 34.910255 33.841689
11719 3 0.805281 25.675452 42.94458
11720 3 0.805281 34.646986 52.04666
11721 3 3.88935 23.236847 22.676082
11722 3 3.88935 32.208381 31.778973
11723 3 3.88935 22.973578 40.881053
11724 3 3.88935 31.945476 49.983943
11725 3 3.88935 22.710673 59.086023
11726 3 1.242975 25.734078 20.226302
11727 3 1.242975 34.705612 29.328382
11728 3 1.242975 25.470809 38.431273
11729 3 1.242975 34.442707 47.533352
11730 3 1.242975 25.207904 56.636243
11731 3 1.116025 21.219545 20.240097
11732 3 1.116025 30.191442 29.342177
11733 3 1.116025 20.95664 38.445068
11734 3 1.116025 29.928173 47.547147
11735 3 1.116025 20.693371 56.650038
11736 3 1.193711 30.11024 19.999907
11737 3 1.193711 20.875438 29.102798
11738 3 1.193711 29.847336 38.204877
11739 3 1.193711 20.612533 47.306957
11740 3 1.193711 29.584067 56.409848
11741 3 3.984089 27.613374 27.39063
11742 3 3.984089 18.378207 36.493521
11743 3 3.984089 27.350105 45.5956
11744 3 3.984089 36.322002 54.69768
11745 3 0.695384 34.43506 20.174369
11746 3 0.695384 25.199893 29.276449
11747 3 0.695384 34.171791 38.378528
11748 3 0.695384 24.936989 47.481419
11749 3 0.695384 33.908886 56.583499
11750 3 0.958127 35.027506 24.472641
11751 3 0.958127 25.792704 33.574721
11752 3 0.958127 34.764601 42.677612
11753 3 0.958127 25.529435 51.779691
11754 3 4.308096 18.986675 27.018984
11755 3 4.308096 27.958573 36.121063
11756 3 4.308096 18.72377 45.223954
11757 3 4.308096 27.695304 54.326034
11758 3 4.204515 32.885306 23.018516
11759 3 4.204515 23.650139 32.120595
11760 3 4.204515 32.622037 41.222675
11761 3 4.204515 23.387234 50.325566
11762 3 4.204515 32.359132 59.427645
11763 3 0.924021 20.954819 24.780994
11764 3 0.924021 29.926717 33.883073
11765 3 0.924021 20.691915 42.985964
11766 3 0.924021 29.663448 52.088044
11767 3 6.521198 26.163392 21.09537
11768 3 6.521198 35.134926 30.197449
11769 3 6.521198 25.900123 39.30034
11770 3 6.521198 34.872021 48.40242
11771 3 6.521198 25.637218 57.504499
11772 3 7.081421 30.229312 20.64907
11773 3 7.081421 20.99451 29.751149
11774 3 7.081421 29.966408 38.85404
11775 3 7.081421 20.731605 47.95612
11776 3 7.081421 29.703139 57.058199
11777 3 6.853416 25.814552 25.081232
11778 3 6.853416 34.786449 34.183311
11779 3 6.853416 25.551283 43.285391
11780 3 6.853416 34.52318 52.388282
11781 3 10.495181 32.404649 23.266009
11782 3 10.495181 23.169846 32.368089
11783 3 10.495181 32.141744 41.47098
11784 3 10.495181 22.906942 50.573059
11785 3 10.495181 31.878475 59.675139
11786 3 6.907733 30.2406 25.120181
11787 3 6.907733 21.005434 34.222261
11788 3 6.907733 29.977332 43.325152
11789 3 6.907733 20.742529 52.427231
11790 3 7.239951 21.272708 20.498139
11791 3 7.239951 30.244606 29.600219
11792 3 7.239951 21.009804 38.70311
11793 3 7.239951 29.981337 47.80519
11794 3 7.239951 20.746535 56.90808
11795 3 7.407954 34.452903 25.430968
11796 3 7.407954 25.2181 34.533859
11797 3 7.407954 34.189634 43.635939
11798 3 7.407954 24.954831 52.738018
11799 3 10.093488 23.461154 22.957657
11800 3 10.093488 32.432687 32.060548
11801 3 10.093488 23.197885 41.162627
11802 3 10.093488 32.169782 50.264707
11803 3 10.093488 22.93498 59.367598
11804 3 10.192648 27.362485 27.02223
11805 3 10.192648 36.334383 36.125121
11806 3 10.192648 27.099216 45.2272
11807 3 10.192648 36.071114 54.330091
11808 3 7.360585 20.455592 24.892974
11809 3 7.360585 29.427489 33.995865
11810 3 7.360585 20.192687 43.097945
11811 3 7.360585 29.164584 52.200836
11812 3 10.381494 18.89018 27.071728
11813 3 10.381494 27.861713 36.174619
11814 3 10.381494 18.626911 45.276699
11815 3 10.381494 27.598808 54.37959
11816 3 7.507746 34.892048 20.567925
11817 3 7.507746 25.657246 29.670816
11818 3 7.507746 34.629143 38.772895
11819 3 7.507746 25.394341 47.874975
11820 3 7.507746 34.365875 56.977866
11821 1 16.967746 28.211282 22.906535
11822 1 16.967746 18.976479 32.008614
11823 1 16.967746 27.948377 41.111505
11824 1 16.967746 18.713575 50.213585
11825 1 16.967746 27.685108 59.315664
11826 1 16.569211 32.450166 27.540749
11827 1 16.569211 23.214999 36.64364
11828 1 16.569211 32.186897 45.745719
11829 1 16.569211 22.952094 54.84861
11830 1 16.818058 23.469529 27.019795
11831 1 16.818058 32.441426 36.121875
11832 1 16.818058 23.206624 45.224766
11833 1 16.818058 32.178157 54.326845
11834 1 16.668371 18.60397 22.628206
11835 1 16.668371 27.575868 31.730286
11836 1 16.668371 18.341065 40.832365
11837 1 16.668371 27.312963 49.935256
11838 1 16.668371 18.077797 59.037336
11839 1 22.590187 27.9451 22.015558
11840 1 22.590187 18.709933 31.118449
11841 1 22.590187 27.681831 40.220529
11842 1 22.590187 18.447028 49.322608
11843 1 22.590187 27.418926 58.425499
11844 1 22.980511 32.376246 27.023041
11845 1 22.980511 23.141444 36.125932
11846 1 22.980511 32.113342 45.228012
11847 1 22.980511 22.878539 54.330091
11848 1 22.865561 23.011812 27.504233
11849 1 22.865561 31.98371 36.607124
11850 1 22.865561 22.748908 45.709204
11851 1 22.865561 31.720441 54.812095
11852 1 23.164936 18.488904 22.615223
11853 1 23.164936 27.460801 31.717302
11854 1 23.164936 18.225999 40.820193
11855 1 23.164936 27.197897 49.922273
11856 1 23.164936 36.16943 59.025164
11857 4 16.634265 28.266266 21.621192
11858 4 16.634265 19.031099 30.723271
11859 4 16.634265 28.002997 39.825351
11860 4 16.634265 18.768195 48.928242
11861 4 16.634265 27.740092 58.030321
11862 4 16.409418 27.424388 23.780471
11863 4 16.409418 18.189586 32.88255
11864 4 16.409418 27.161483 41.98463
11865 4 16.409418 17.926317 51.087521
11866 4 16.409418 26.898214 60.1896
11867 4 16.742267 31.599549 26.561324
11868 4 16.742267 22.364746 35.664215
11869 4 16.742267 31.336644 44.766294
11870 4 16.742267 22.101841 53.868374
11871 4 17.143329 33.674748 27.527765
11872 4 17.143329 24.439946 36.629845
11873 4 17.143329 33.411843 45.731925
11874 4 17.143329 24.176677 54.834816
11875 4 17.483757 23.370484 28.140413
11876 4 17.483757 32.342018 37.242493
11877 4 17.483757 23.107215 46.345384
11878 4 17.483757 32.079113 55.447463
11879 4 16.216782 22.46197 26.418508
11880 4 16.216782 31.433868 35.520587
11881 4 16.216782 22.199065 44.622667
11882 4 16.216782 31.170599 53.725558
11883 4 17.918293 18.202695 22.811595
11884 4 17.918293 27.174592 31.913674
11885 4 17.918293 17.93979 41.016565
11886 4 17.918293 26.911687 50.118645
11887 4 17.918293 17.676521 59.220724
11888 4 16.320363 19.280895 21.578996
11889 4 16.320363 28.252793 30.681076
11890 4 16.320363 19.017991 39.783155
11891 4 16.320363 27.989888 48.886046
11892 4 16.320363 18.754722 57.988126
11893 4 22.350181 28.067085 23.270878
11894 4 22.350181 18.832282 32.373769
11895 4 22.350181 27.803816 41.475848
11896 4 22.350181 18.569013 50.578739
11897 4 22.350181 27.540911 59.680819
11898 4 23.668316 27.415285 21.497851
11899 4 23.668316 18.180118 30.59993
11900 4 23.668316 27.152016 39.70201
11901 4 23.668316 17.917213 48.804901
11902 4 23.668316 26.889111 57.90698
11903 4 23.216727 33.498507 27.651918
11904 4 23.216727 24.263341 36.754809
11905 4 23.216727 33.235238 45.856888
11906 4 23.216727 24.000436 54.958968
11907 4 23.901374 31.456808 26.745524
11908 4 23.901374 22.222006 35.848415
11909 4 23.901374 31.193903 44.950494
11910 4 23.901374 21.959101 54.052574
11911 4 22.347655 24.046681 26.97192
11912 4 22.347655 33.018215 36.07481
11913 4 22.347655 23.783412 45.17689
11914 4 22.347655 32.75531 54.279781
11915 4 23.123883 22.81518 28.791199
11916 4 23.123883 31.787078 37.893279
11917 4 23.123883 22.552275 46.99617
11918 4 23.123883 31.523809 56.098249
11919 4 23.080303 17.573471 23.532977
11920 4 23.080303 26.545004 32.635057
11921 4 23.080303 17.310202 41.737948
11922 4 23.080303 26.2821 50.840027
11923 4 23.080303 35.253997 59.942918
11924 4 22.797981 19.75609 22.711786
11925 4 22.797981 28.727988 31.813866
11926 4 22.797981 19.493185 40.916756
11927 4 22.797981 28.464719 50.018836
11928 4 22.797981 1.023217 59.121727
11929 2 15.883932 27.650515 21.282816
11930 2 15.883932 18.415713 30.385706
11931 2 15.883932 27.387246 39.487786
11932 2 15.883932 18.152444 48.589866
11933 2 15.883932 27.124342 57.692756
11934 2 15.479081 27.012188 23.583288
11935 2 15.479081 17.777022 32.686179
11936 2 15.479081 26.74892 41.788258
11937 2 15.479081 17.514117 50.891149
11938 2 15.479081 26.486015 59.993229
11939 2 17.84566 28.745102 23.206773
11940 2 17.84566 19.509936 32.308852
11941 2 17.84566 28.481833 41.411743
11942 2 17.84566 19.247031 50.513823
11943 2 17.84566 28.218928 59.615902
11944 2 17.140171 28.879832 21.05642
11945 2 17.140171 19.644665 30.159311
11946 2 17.140171 28.616563 39.26139
11947 2 17.140171 19.38176 48.36347
11948 2 17.140171 28.353658 57.466361
11949 2 16.883744 27.247419 24.735552
11950 2 16.883744 18.012252 33.838443
11951 2 16.883744 26.98415 42.940523
11952 2 16.883744 17.749348 52.042602
11953 2 16.883744 26.721245 61.145493
11954 2 17.260174 31.919986 25.735264
11955 2 17.260174 22.685184 34.837343
11956 2 17.260174 31.656718 43.939423
11957 2 17.260174 22.421915 53.042314
11958 2 17.886714 33.722086 26.864808
11959 2 17.886714 24.487283 35.967699
11960 2 17.886714 33.459181 45.069778
11961 2 17.886714 24.224378 54.172669
11962 2 16.005198 32.217848 28.373301
11963 2 16.005198 22.982682 37.47538
11964 2 16.005198 31.954579 46.578271
11965 2 16.005198 22.719777 55.680351
11966 2 16.129622 30.810834 26.433926
11967 2 16.129622 21.576032 35.536005
11968 2 16.129622 30.54793 44.638896
11969 2 16.129622 21.313127 53.740976
11970 2 17.39344 34.035605 28.423611
11971 2 17.39344 24.800803 37.52569
11972 2 17.39344 33.7727 46.62777
11973 2 17.39344 24.537898 55.730661
11974 2 16.33489 21.518135 26.855882
11975 2 16.33489 30.489668 35.957961
11976 2 16.33489 21.254866 45.060852
11977 2 16.33489 30.226763 54.162932
11978 2 15.506871 22.601797 25.725526
11979 2 15.506871 31.573695 34.827606
11980 2 15.506871 22.338528 43.929685
11981 2 15.506871 31.310426 53.032576
11982 2 16.714477 24.479636 26.611634
11983 2 16.714477 33.451534 35.714525
11984 2 16.714477 24.216732 44.816604
11985 2 16.714477 33.188265 53.919495
11986 2 17.56018 22.522052 28.663801
11987 2 17.56018 31.49395 37.765881
11988 2 17.56018 22.259147 46.868772
11989 2 17.56018 31.230681 55.970851
11990 2 17.872187 24.237123 28.536403
11991 2 17.872187 33.209021 37.639294
11992 2 17.872187 23.974218 46.741373
11993 2 17.872187 32.946116 55.844264
11994 2 18.728627 18.529687 22.343386
11995 2 18.728627 27.501584 31.445465
11996 2 18.728627 18.266782 40.548356
11997 2 18.728627 27.238316 49.650436
11998 2 18.728627 18.003513 58.752515
11999 2 15.468344 19.818357 21.612266
12000 2 15.468344 28.790255 30.715157
12001 2 15.468344 19.555088 39.817236
12002 2 15.468344 28.526986 48.920127
12003 2 15.468344 19.292183 58.022207
12004 2 15.886459 18.275521 23.319565
12005 2 15.886459 27.247055 32.422456
12006 2 15.886459 18.012252 41.524536
12007 2 15.886459 26.98415 50.626615
12008 2 15.886459 17.749348 59.729506
12009 2 16.946903 19.675981 20.887637
12010 2 16.946903 28.647878 29.990528
12011 2 16.946903 19.413076 39.092608
12012 2 16.946903 28.384609 48.194687
12013 2 16.946903 19.149807 57.297578
12014 2 18.133667 17.808702 23.697703
12015 2 18.133667 26.780235 32.799782
12016 2 18.133667 17.545433 41.902673
12017 2 18.133667 26.51733 51.004753
12018 2 18.133667 17.282528 60.106832
12019 2 21.438161 28.396626 23.469684
12020 2 21.438161 19.161459 32.571764
12021 2 21.438161 28.133357 41.674655
12022 2 21.438161 18.898555 50.776734
12023 2 21.438161 27.870452 59.879625
12024 2 22.784717 27.662532 24.032833
12025 2 22.784717 18.427729 33.134913
12026 2 22.784717 27.399627 42.236992
12027 2 22.784717 18.164825 51.339883
12028 2 22.784717 27.136358 60.441963
12029 2 24.422438 26.963759 21.992026
12030 2 24.422438 17.728592 31.094106
12031 2 24.422438 26.70049 40.196185
12032 2 24.422438 17.465687 49.299076
12033 2 24.422438 26.437585 58.401156
12034 2 21.902382 28.459621 21.411837
12035 2 21.902382 19.224819 30.514728
12036 2 21.902382 28.196716 39.616807
12037 2 21.902382 18.96155 48.719698
12038 2 21.902382 27.933447 57.821778
12039 2 23.613999 27.499764 20.450264
12040 2 23.613999 18.264597 29.552343
12041 2 23.613999 27.236495 38.655234
12042 2 23.613999 18.001693 47.757314
12043 2 23.613999 26.97359 56.859393
12044 2 22.453131 34.104426 27.642181
12045 2 22.453131 24.869624 36.745071
12046 2 22.453131 33.841522 45.847151
12047 2 22.453131 24.606719 54.950042
12048 2 24.179906 33.805108 27.928624
12049 2 24.179906 24.570306 37.030703
12050 2 24.179906 33.542203 46.133594
12051 2 24.179906 24.307401 55.235674
12052 2 24.851921 31.642152 27.110678
12053 2 24.851921 22.40735 36.212758
12054 2 24.851921 31.378883 45.314837
12055 2 24.851921 22.144081 54.417728
12056 2 22.009121 32.151212 26.58161
12057 2 22.009121 22.916409 35.68369
12058 2 22.009121 31.888307 44.786581
12059 2 22.009121 22.65314 53.88866
12060 2 23.617789 30.603642 26.306527
12061 2 23.617789 21.36884 35.409418
12062 2 23.617789 30.340737 44.511498
12063 2 23.617789 21.105935 53.614389
12064 2 23.852741 22.099292 28.982703
12065 2 23.852741 31.07119 38.084782
12066 2 23.852741 21.836388 47.187673
12067 2 23.852741 30.808285 56.289753
12068 2 22.827034 23.445496 29.569384
12069 2 22.827034 32.417393 38.671463
12070 2 22.827034 23.182591 47.774354
12071 2 22.827034 32.154489 56.876434
12072 2 22.171441 24.068893 25.966528
12073 2 22.171441 33.040791 35.068608
12074 2 22.171441 23.805624 44.171498
12075 2 22.171441 32.777522 53.273578
12076 2 22.066596 24.910043 27.576453
12077 2 22.066596 33.88194 36.679344
12078 2 22.066596 24.646774 45.781423
12079 2 22.066596 33.618672 54.883503
12080 2 23.112514 22.182315 26.871299
12081 2 23.112514 31.154213 35.973379
12082 2 23.112514 21.919046 45.075458
12083 2 23.112514 30.890944 54.178349
12084 2 23.595683 16.636554 23.313885
12085 2 23.595683 25.608452 32.415964
12086 2 23.595683 16.373285 41.518044
12087 2 23.595683 25.345183 50.620935
12088 2 23.595683 34.317081 59.723014
12089 2 23.177568 20.437749 22.130785
12090 2 23.177568 29.409647 31.232864
12091 2 23.177568 20.17448 40.334944
12092 2 23.177568 29.146378 49.437835
12093 2 23.177568 1.704875 58.539914
12094 2 22.695031 17.626635 24.484002
12095 2 22.695031 26.598168 33.586893
12096 2 22.695031 17.363366 42.688972
12097 2 22.695031 26.335263 51.791052
12098 2 22.695031 35.307161 60.893943
12099 2 22.124071 20.00006 23.436414
12100 2 22.124071 28.971958 32.538494
12101 2 22.124071 19.737155 41.641385
12102 2 22.124071 28.708689 50.743464
12103 2 22.124071 1.267186 59.846355
12104 2 23.572946 18.188857 21.622003
12105 2 23.572946 27.160755 30.724083
12106 2 23.572946 17.925953 39.826974
12107 2 23.572946 26.897486 48.929053
12108 2 23.572946 35.869384 58.031944
12109 6 13.570407 27.832582 26.984091
12110 6 13.570407 18.597416 36.086171
12111 6 13.570407 27.569313 45.189062
12112 6 13.570407 18.334511 54.291141
12113 6 13.411246 23.204439 22.703671
12114 6 13.411246 32.176337 31.806562
12115 6 13.411246 22.941534 40.908642
12116 6 13.411246 31.913068 50.010721
12117 6 13.411246 22.678266 59.113612
12118 6 13.810413 32.545569 22.722335
12119 6 13.810413 23.310766 31.825226
12120 6 13.810413 32.282664 40.927305
12121 6 13.810413 23.047497 50.030196
12122 6 13.810413 32.019395 59.132276
12123 6 13.996101 18.702651 26.885094
12124 6 13.996101 27.674184 35.987173
12125 6 13.996101 18.439382 45.090064
12126 6 13.996101 27.411279 54.192144
12127 6 20.111184 18.577024 27.562658
12128 6 20.111184 27.548922 36.664738
12129 6 20.111184 18.31412 45.766817
12130 6 20.111184 27.285653 54.869708
12131 6 19.998761 32.512797 22.822144
12132 6 19.998761 23.27763 31.925035
12133 6 19.998761 32.249528 41.027114
12134 6 19.998761 23.014725 50.130005
12135 6 19.998761 31.986623 59.232085
12136 6 19.606541 23.181499 22.948731
12137 6 19.606541 32.153396 32.05081
12138 6 19.606541 22.918594 41.153701
12139 6 19.606541 31.890127 50.255781
12140 6 19.606541 22.655325 59.35786
12141 6 19.914759 27.731717 27.427145
12142 6 19.914759 18.496915 36.529225
12143 6 19.914759 27.468448 45.632116
12144 6 19.914759 18.233646 54.734195
12145 3 14.084524 30.236231 24.800469
12146 3 14.084524 21.001064 33.902548
12147 3 14.084524 29.972962 43.004628
12148 3 14.084524 20.73816 52.107519
12149 3 13.437141 25.938357 24.73961
12150 3 13.437141 34.910255 33.841689
12151 3 13.437141 25.675452 42.94458
12152 3 13.437141 34.646986 52.04666
12153 3 16.52121 23.236847 22.676082
12154 3 16.52121 32.208381 31.778973
12155 3 16.52121 22.973578 40.881053
12156 3 16.52121 31.945476 49.983943
12157 3 16.52121 22.710673 59.086023
12158 3 13.874835 25.734078 20.226302
12159 3 13.874835 34.705612 29.328382
12160 3 13.874835 25.470809 38.431273
12161 3 13.874835 34.442707 47.533352
12162 3 13.874835 25.207904 56.636243
12163 3 13.747885 21.219545 20.240097
12164 3 13.747885 30.191442 29.342177
12165 3 13.747885 20.95664 38.445068
12166 3 13.747885 29.928173 47.547147
12167 3 13.747885 20.693371 56.650038
12168 3 13.825571 30.11024 19.999907
12169 3 13.825571 20.875438 29.102798
12170 3 13.825571 29.847336 38.204877
12171 3 13.825571 20.612533 47.306957
12172 3 13.825571 29.584067 56.409848
12173 3 16.615949 27.613374 27.39063
12174 3 16.615949 18.378207 36.493521
12175 3 16.615949 27.350105 45.5956
12176 3 16.615949 36.322002 54.69768
12177 3 13.327244 34.43506 20.174369
12178 3 13.327244 25.199893 29.276449
12179 3 13.327244 34.171791 38.378528
12180 3 13.327244 24.936989 47.481419
12181 3 13.327244 33.908886 56.583499
12182 3 13.589987 35.027506 24.472641
12183 3 13.589987 25.792704 33.574721
12184 3 13.589987 34.764601 42.677612
12185 3 13.589987 25.529435 51.779691
12186 3 16.939956 18.986675 27.018984
12187 3 16.939956 27.958573 36.121063
12188 3 16.939956 18.72377 45.223954
12189 3 16.939956 27.695304 54.326034
12190 3 16.836375 32.885306 23.018516
12191 3 16.836375 23.650139 32.120595
12192 3 16.836375 32.622037 41.222675
12193 3 16.836375 23.387234 50.325566
12194 3 16.836375 32.359132 59.427645
12195 3 13.555881 20.954819 24.780994
12196 3 13.555881 29.926717 33.883073
12197 3 13.555881 20.691915 42.985964
12198 3 13.555881 29.663448 52.088044
12199 3 19.153058 26.163392 21.09537
12200 3 19.153058 35.134926 30.197449
12201 3 19.153058 25.900123 39.30034
12202 3 19.153058 34.872021 48.40242
12203 3 19.153058 25.637218 57.504499
12204 3 19.713281 30.229312 20.64907
12205 3 19.713281 20.99451 29.751149
12206 3 19.713281 29.966408 38.85404
12207 3 19.713281 20.731605 47.95612
12208 3 19.713281 29.703139 57.058199
12209 3 19.485276 25.814552 25.081232
12210 3 19.485276 34.786449 34.183311
12211 3 19.485276 25.551283 43.285391
12212 3 19.485276 34.52318 52.388282
12213 3 23.127041 32.404649 23.266009
12214 3 23.127041 23.169846 32.368089
12215 3 23.127041 32.141744 41.47098
12216 3 23.127041 22.906942 50.573059
12217 3 23.127041 31.878475 59.675139
12218 3 19.539593 30.2406 25.120181
12219 3 19.539593 21.005434 34.222261
12220 3 19.539593 29.977332 43.325152
12221 3 19.539593 20.742529 52.427231
12222 3 19.871811 21.272708 20.498139
12223 3 19.871811 30.244606 29.600219
12224 3 19.871811 21.009804 38.70311
12225 3 19.871811 29.981337 47.80519
12226 3 19.871811 20.746535 56.90808
12227 3 20.039814 34.452903 25.430968
12228 3 20.039814 25.2181 34.533859
12229 3 20.039814 34.189634 43.635939
12230 3 20.039814 24.954831 52.738018
12231 3 22.725348 23.461154 22.957657
12232 3 22.725348 32.432687 32.060548
12233 3 22.725348 23.197885 41.162627
12234 3 22.725348 32.169782 50.264707
12235 3 22.725348 22.93498 59.367598
12236 3 22.824508 27.362485 27.02223
12237 3 22.824508 36.334383 36.125121
12238 3 22.824508 27.099216 45.2272
12239 3 22.824508 36.071114 54.330091
12240 3 19.992445 20.455592 24.892974
12241 3 19.992445 29.427489 33.995865
12242 3 19.992445 20.192687 43.097945
12243 3 19.992445 29.164584 52.200836
12244 3 23.013354 18.89018 27.071728
12245 3 23.013354 27.861713 36.174619
12246 3 23.013354 18.626911 45.276699
12247 3 23.013354 27.598808 54.37959
12248 3 20.139606 34.892048 20.567925
12249 3 20.139606 25.657246 29.670816
12250 3 20.139606 34.629143 38.772895
12251 3 20.139606 25.394341 47.874975
12252 3 20.139606 34.365875 56.977866
12253 1 29.599606 28.211282 22.906535
12254 1 29.599606 18.976479 32.008614
12255 1 29.599606 27.948377 41.111505
12256 1 29.599606 18.713575 50.213585
12257 1 29.599606 27.685108 59.315664
12258 1 29.201071 32.450166 27.540749
12259 1 29.201071 23.214999 36.64364
12260 1 29.201071 32.186897 45.745719
12261 1 29.201071 22.952094 54.84861
12262 1 29.449918 23.469529 27.019795
12263 1 29.449918 32.441426 36.121875
12264 1 29.449918 23.206624 45.224766
12265 1 29.449918 32.178157 54.326845
12266 1 29.300231 18.60397 22.628206
12267 1 29.300231 27.575868 31.730286
12268 1 29.300231 18.341065 40.832365
12269 1 29.300231 27.312963 49.935256
12270 1 29.300231 18.077797 59.037336
12271 1 35.222047 27.9451 22.015558
12272 1 35.222047 18.709933 31.118449
12273 1 35.222047 27.681831 40.220529
12274 1 35.222047 18.447028 49.322608
12275 1 35.222047 27.418926 58.425499
12276 1 35.612371 32.376246 27.023041
12277 1 35.612371 23.141444 36.125932
12278 1 35.612371 32.113342 45.228012
12279 1 35.612371 22.878539 54.330091
12280 1 35.497421 23.011812 27.504233
12281 1 35.497421 31.98371 36.607124
12282 1 35.497421 22.748908 45.709204
12283 1 35.497421 31.720441 54.812095
12284 1 35.796796 18.488904 22.615223
12285 1 35.796796 27.460801 31.717302
12286 1 35.796796 18.225999 40.820193
12287 1 35.796796 27.197897 49.922273
12288 1 35.796796 36.16943 59.025164
12289 4 29.266125 28.266266 21.621192
12290 4 29.266125 19.031099 30.723271
12291 4 29.266125 28.002997 39.825351
12292 4 29.266125 18.768195 48.928242
12293 4 29.266125 27.740092 58.030321
12294 4 29.041278 27.424388 23.780471
12295 4 29.041278 18.189586 32.88255
12296 4 29.041278 27.161483 41.98463
12297 4 29.041278 17.926317 51.087521
12298 4 29.041278 26.898214 60.1896
12299 4 29.374127 31.599549 26.561324
12300 4 29.374127 22.364746 35.664215
12301 4 29.374127 31.336644 44.766294
12302 4 29.374127 22.101841 53.868374
12303 4 29.775189 33.674748 27.527765
12304 4 29.775189 24.439946 36.629845
12305 4 29.775189 33.411843 45.731925
12306 4 29.775189 24.176677 54.834816
12307 4 30.115617 23.370484 28.140413
12308 4 30.115617 32.342018 37.242493
12309 4 30.115617 23.107215 46.345384
12310 4 30.115617 32.079113 55.447463
12311 4 28.848642 22.46197 26.418508
12312 4 28.848642 31.433868 35.520587
12313 4 28.848642 22.199065 44.622667
12314 4 28.848642 31.170599 53.725558
12315 4 30.550153 18.202695 22.811595
12316 4 30.550153 27.174592 31.913674
12317 4 30.550153 17.93979 41.016565
12318 4 30.550153 26.911687 50.118645
12319 4 30.550153 17.676521 59.220724
12320 4 28.952223 19.280895 21.578996
12321 4 28.952223 28.252793 30.681076
12322 4 28.952223 19.017991 39.783155
12323 4 28.952223 27.989888 48.886046
12324 4 28.952223 18.754722 57.988126
12325 4 34.982041 28.067085 23.270878
12326 4 34.982041 18.832282 32.373769
12327 4 34.982041 27.803816 41.475848
12328 4 34.982041 18.569013 50.578739
12329 4 34.982041 27.540911 59.680819
12330 4 36.300176 27.415285 21.497851
12331 4 36.300176 18.180118 30.59993
12332 4 36.300176 27.152016 39.70201
12333 4 36.300176 17.917213 48.804901
12334 4 36.300176 26.889111 57.90698
12335 4 35.848587 33.498507 27.651918
12336 4 35.848587 24.263341 36.754809
12337 4 35.848587 33.235238 45.856888
12338 4 35.848587 24.000436 54.958968
12339 4 36.533234 31.456808 26.745524
12340 4 36.533234 22.222006 35.848415
12341 4 36.533234 31.193903 44.950494
12342 4 36.533234 21.959101 54.052574
12343 4 34.979515 24.046681 26.97192
12344 4 34.979515 33.018215 36.07481
12345 4 34.979515 23.783412 45.17689
12346 4 34.979515 32.75531 54.279781
12347 4 35.755743 22.81518 28.791199
12348 4 35.755743 31.787078 37.893279
12349 4 35.755743 22.552275 46.99617
12350 4 35.755743 31.523809 56.098249
12351 4 35.712163 17.573471 23.532977
12352 4 35.712163 26.545004 32.635057
12353 4 35.712163 17.310202 41.737948
12354 4 35.712163 26.2821 50.840027
12355 4 35.712163 35.253997 59.942918
12356 4 35.429841 19.75609 22.711786
12357 4 35.429841 28.727988 31.813866
12358 4 35.429841 19.493185 40.916756
12359 4 35.429841 28.464719 50.018836
12360 4 35.429841 1.023217 59.121727
12361 2 28.515792 27.650515 21.282816
12362 2 28.515792 18.415713 30.385706
12363 2 28.515792 27.387246 39.487786
12364 2 28.515792 18.152444 48.589866
12365 2 28.515792 27.124342 57.692756
12366 2 28.110941 27.012188 23.583288
12367 2 28.110941 17.777022 32.686179
12368 2 28.110941 26.74892 41.788258
12369 2 28.110941 17.514117 50.891149
12370 2 28.110941 26.486015 59.993229
12371 2 30.47752 28.745102 23.206773
12372 2 30.47752 19.509936 32.308852
12373 2 30.47752 28.481833 41.411743
12374 2 30.47752 19.247031 50.513823
12375 2 30.47752 28.218928 59.615902
12376 2 29.772031 28.879832 21.05642
12377 2 29.772031 19.644665 30.159311
12378 2 29.772031 28.616563 39.26139
12379 2 29.772031 19.38176 48.36347
12380 2 29.772031 28.353658 57.466361
12381 2 29.515604 27.247419 24.735552
12382 2 29.515604 18.012252 33.838443
12383 2 29.515604 26.98415 42.940523
12384 2 29.515604 17.749348 52.042602
12385 2 29.515604 26.721245 61.145493
12386 2 29.892034 31.919986 25.735264
12387 2 29.892034 22.685184 34.837343
12388 2 29.892034 31.656718 43.939423
12389 2 29.892034 22.421915 53.042314
12390 2 30.518574 33.722086 26.864808
12391 2 30.518574 24.487283 35.967699
12392 2 30.518574 33.459181 45.069778
12393 2 30.518574 24.224378 54.172669
12394 2 28.637058 32.217848 28.373301
12395 2 28.637058 22.982682 37.47538
12396 2 28.637058 31.954579 46.578271
12397 2 28.637058 22.719777 55.680351
12398 2 28.761482 30.810834 26.433926
12399 2 28.761482 21.576032 35.536005
12400 2 28.761482 30.54793 44.638896
12401 2 28.761482 21.313127 53.740976
12402 2 30.0253 34.035605 28.423611
12403 2 30.0253 24.800803 37.52569
12404 2 30.0253 33.7727 46.62777
12405 2 30.0253 24.537898 55.730661
12406 2 28.96675 21.518135 26.855882
12407 2 28.96675 30.489668 35.957961
12408 2 28.96675 21.254866 45.060852
12409 2 28.96675 30.226763 54.162932
12410 2 28.138731 22.601797 25.725526
12411 2 28.138731 31.573695 34.827606
12412 2 28.138731 22.338528 43.929685
12413 2 28.138731 31.310426 53.032576
12414 2 29.346337 24.479636 26.611634
12415 2 29.346337 33.451534 35.714525
12416 2 29.346337 24.216732 44.816604
12417 2 29.346337 33.188265 53.919495
12418 2 30.19204 22.522052 28.663801
12419 2 30.19204 31.49395 37.765881
12420 2 30.19204 22.259147 46.868772
12421 2 30.19204 31.230681 55.970851
12422 2 30.504047 24.237123 28.536403
12423 2 30.504047 33.209021 37.639294
12424 2 30.504047 23.974218 46.741373
12425 2 30.504047 32.946116 55.844264
12426 2 31.360487 18.529687 22.343386
12427 2 31.360487 27.501584 31.445465
12428 2 31.360487 18.266782 40.548356
12429 2 31.360487 27.238316 49.650436
12430 2 31.360487 18.003513 58.752515
12431 2 28.100204 19.818357 21.612266
12432 2 28.100204 28.790255 30.715157
12433 2 28.100204 19.555088 39.817236
12434 2 28.100204 28.526986 48.920127
12435 2 28.100204 19.292183 58.022207
12436 2 28.518319 18.275521 23.319565
12437 2 28.518319 27.247055 32.422456
12438 2 28.518319 18.012252 41.524536
12439 2 28.518319 26.98415 50.626615
12440 2 28.518319 17.749348 59.729506
12441 2 29.578763 19.675981 20.887637
12442 2 29.578763 28.647878 29.990528
12443 2 29.578763 19.413076 39.092608
12444 2 29.578763 28.384609 48.194687
12445 2 29.578763 19.149807 57.297578
12446 2 30.765527 17.808702 23.697703
12447 2 30.765527 26.780235 32.799782
12448 2 30.765527 17.545433 41.902673
12449 2 30.765527 26.51733 51.004753
12450 2 30.765527 17.282528 60.106832
12451 2 34.070021 28.396626 23.469684
12452 2 34.070021 19.161459 32.571764
12453 2 34.070021 28.133357 41.674655
12454 2 34.070021 18.898555 50.776734
12455 2 34.070021 27.870452 59.879625
12456 2 35.416577 27.662532 24.032833
12457 2 35.416577 18.427729 33.134913
12458 2 35.416577 27.399627 42.236992
12459 2 35.416577 18.164825 51.339883
12460 2 35.416577 27.136358 60.441963
12461 2 37.054298 26.963759 21.992026
12462 2 37.054298 17.728592 31.094106
12463 2 37.054298 26.70049 40.196185
12464 2 37.054298 17.465687 49.299076
12465 2 37.054298 26.437585 58.401156
12466 2 34.534242 28.459621 21.411837
12467 2 34.534242 19.224819 30.514728
12468 2 34.534242 28.196716 39.616807
12469 2 34.534242 18.96155 48.719698
12470 2 34.534242 27.933447 57.821778
12471 2 36.245859 27.499764 20.450264
12472 2 36.245859 18.264597 29.552343
12473 2 36.245859 27.236495 38.655234
12474 2 36.245859 18.001693 47.757314
12475 2 36.245859 26.97359 56.859393
12476 2 35.084991 34.104426 27.642181
12477 2 35.084991 24.869624 36.745071
12478 2 35.084991 33.841522 45.847151
12479 2 35.084991 24.606719 54.950042
12480 2 36.811766 33.805108 27.928624
12481 2 36.811766 24.570306 37.030703
12482 2 36.811766 33.542203 46.133594
12483 2 36.811766 24.307401 55.235674
12484 2 37.483781 31.642152 27.110678
12485 2 37.483781 22.40735 36.212758
12486 2 37.483781 31.378883 45.314837
12487 2 37.483781 22.144081 54.417728
12488 2 34.640981 32.151212 26.58161
12489 2 34.640981 22.916409 35.68369
12490 2 34.640981 31.888307 44.786581
12491 2 34.640981 22.65314 53.88866
12492 2 36.249649 30.603642 26.306527
12493 2 36.249649 21.36884 35.409418
12494 2 36.249649 30.340737 44.511498
12495 2 36.249649 21.105935 53.614389
12496 2 36.484601 22.099292 28.982703
12497 2 36.484601 31.07119 38.084782
12498 2 36.484601 21.836388 47.187673
12499 2 36.484601 30.808285 56.289753
12500 2 35.458894 23.445496 29.569384
12501 2 35.458894 32.417393 38.671463
12502 2 35.458894 23.182591 47.774354
12503 2 35.458894 32.154489 56.876434
12504 2 34.803301 24.068893 25.966528
12505 2 34.803301 33.040791 35.068608
12506 2 34.803301 23.805624 44.171498
12507 2 34.803301 32.777522 53.273578
12508 2 34.698456 24.910043 27.576453
12509 2 34.698456 33.88194 36.679344
12510 2 34.698456 24.646774 45.781423
12511 2 34.698456 33.618672 54.883503
12512 2 35.744374 22.182315 26.871299
12513 2 35.744374 31.154213 35.973379
12514 2 35.744374 21.919046 45.075458
12515 2 35.744374 30.890944 54.178349
12516 2 36.227543 16.636554 23.313885
12517 2 36.227543 25.608452 32.415964
12518 2 36.227543 16.373285 41.518044
12519 2 36.227543 25.345183 50.620935
12520 2 36.227543 34.317081 59.723014
12521 2 35.809428 20.437749 22.130785
12522 2 35.809428 29.409647 31.232864
12523 2 35.809428 20.17448 40.334944
12524 2 35.809428 29.146378 49.437835
12525 2 35.809428 1.704875 58.539914
12526 2 35.326891 17.626635 24.484002
12527 2 35.326891 26.598168 33.586893
12528 2 35.326891 17.363366 42.688972
12529 2 35.326891 26.335263 51.791052
12530 2 35.326891 35.307161 60.893943
12531 2 34.755931 20.00006 23.436414
12532 2 34.755931 28.971958 32.538494
12533 2 34.755931 19.737155 41.641385
12534 2 34.755931 28.708689 50.743464
12535 2 34.755931 1.267186 59.846355
12536 2 36.204806 18.188857 21.622003
12537 2 36.204806 27.160755 30.724083
12538 2 36.204806 17.925953 39.826974
12539 2 36.204806 26.897486 48.929053
12540 2 36.204806 35.869384 58.031944
12541 6 26.202267 27.832582 26.984091
12542 6 26.202267 18.597416 36.086171
12543 6 26.202267 27.569313 45.189062
12544 6 26.202267 18.334511 54.291141
12545 6 26.043106 23.204439 22.703671
12546 6 26.043106 32.176337 31.806562
12547 6 26.043106 22.941534 40.908642
12548 6 26.043106 31.913068 50.010721
12549 6 26.043106 22.678266 59.113612
12550 6 26.442273 32.545569 22.722335
12551 6 26.442273 23.310766 31.825226
12552 6 26.442273 32.282664 40.927305
12553 6 26.442273 23.047497 50.030196
12554 6 26.442273 32.019395 59.132276
12555 6 26.627961 18.702651 26.885094
12556 6 26.627961 27.674184 35.987173
12557 6 26.627961 18.439382 45.090064
12558 6 26.627961 27.411279 54.192144
12559 6 32.743044 18.577024 27.562658
12560 6 32.743044 27.548922 36.664738
12561 6 32.743044 18.31412 45.766817
12562 6 32.743044 27.285653 54.869708
12563 6 32.630621 32.512797 22.822144
12564 6 32.630621 23.27763 31.925035
12565 6 32.630621 32.249528 41.027114
12566 6 32.630621 23.014725 50.130005
12567 6 32.630621 31.986623 59.232085
12568 6 32.238401 23.181499 22.948731
12569 6 32.238401 32.153396 32.05081
12570 6 32.238401 22.918594 41.153701
12571 6 32.238401 31.890127 50.255781
12572 6 32.238401 22.655325 59.35786
12573 6 32.546619 27.731717 27.427145
12574 6 32.546619 18.496915 36.529225
12575 6 32.546619 27.468448 45.632116
12576 6 32.546619 18.233646 54.734195
12577 3 26.716384 30.236231 24.800469
12578 3 26.716384 21.001064 33.902548
12579 3 26.716384 29.972962 43.004628
12580 3 26.716384 20.73816 52.107519
12581 3 26.069001 25.938357 24.73961
12582 3 26.069001 34.910255 33.841689
12583 3 26.069001 25.675452 42.94458
12584 3 26.069001 34.646986 52.04666
12585 3 29.15307 23.236847 22.676082
12586 3 29.15307 32.208381 31.778973
12587 3 29.15307 22.973578 40.881053
12588 3 29.15307 31.945476 49.983943
12589 3 29.15307 22.710673 59.086023
12590 3 26.506695 25.734078 20.226302
12591 3 26.506695 34.705612 29.328382
12592 3 26.506695 25.470809 38.431273
12593 3 26.506695 34.442707 47.533352
12594 3 26.506695 25.207904 56.636243
12595 3 26.379745 21.219545 20.240097
12596 3 26.379745 30.191442 29.342177
12597 3 26.379745 20.95664 38.445068
12598 3 26.379745 29.928173 47.547147
12599 3 26.379745 20.693371 56.650038
12600 3 26.457431 30.11024 19.999907
12601 3 26.457431 20.875438 29.102798
12602 3 26.457431 29.847336 38.204877
12603 3 26.457431 20.612533 47.306957
12604 3 26.457431 29.584067 56.409848
12605 3 29.247809 27.613374 27.39063
12606 3 29.247809 18.378207 36.493521
12607 3 29.247809 27.350105 45.5956
12608 3 29.247809 36.322002 54.69768
12609 3 25.959104 34.43506 20.174369
12610 3 25.959104 25.199893 29.276449
12611 3 25.959104 34.171791 38.378528
12612 3 25.959104 24.936989 47.481419
12613 3 25.959104 33.908886 56.583499
12614 3 26.221847 35.027506 24.472641
12615 3 26.221847 25.792704 33.574721
12616 3 26.221847 34.764601 42.677612
12617 3 26.221847 25.529435 51.779691
12618 3 29.571816 18.986675 27.018984
12619 3 29.571816 27.958573 36.121063
12620 3 29.571816 18.72377 45.223954
12621 3 29.571816 27.695304 54.326034
12622 3 29.468235 32.885306 23.018516
12623 3 29.468235 23.650139 32.120595
12624 3 29.468235 32.622037 41.222675
12625 3 29.468235 23.387234 50.325566
12626 3 29.468235 32.359132 59.427645
12627 3 26.187741 20.954819 24.780994
12628 3 26.187741 29.926717 33.883073
12629 3 26.187741 20.691915 42.985964
12630 3 26.187741 29.663448 52.088044
12631 3 31.784918 26.163392 21.09537
12632 3 31.784918 35.134926 30.197449
12633 3 31.784918 25.900123 39.30034
12634 3 31.784918 34.872021 48.40242
12635 3 31.784918 25.637218 57.504499
12636 3 32.345141 30.229312 20.64907
12637 3 32.345141 20.99451 29.751149
12638 3 32.345141 29.966408 38.85404
12639 3 32.345141 20.731605 47.95612
12640 3 32.345141 29.703139 57.058199
12641 3 32.117136 25.814552 25.081232
12642 3 32.117136 34.786449 34.183311
12643 3 32.117136 25.551283 43.285391
12644 3 32.117136 34.52318 52.388282
12645 3 35.758901 32.404649 23.266009
12646 3 35.758901 23.169846 32.368089
12647 3 35.758901 32.141744 41.47098
12648 3 35.758901 22.906942 50.573059
12649 3 35.758901 31.878475 59.675139
12650 3 32.171453 30.2406 25.120181
12651 3 32.171453 21.005434 34.222261
12652 3 32.171453 29.977332 43.325152
12653 3 32.171453 20.742529 52.427231
12654 3 32.503671 21.272708 20.498139
12655 3 32.503671 30.244606 29.600219
12656 3 32.503671 21.009804 38.70311
12657 3 32.503671 29.981337 47.80519
12658 3 32.503671 20.746535 56.90808
12659 3 32.671674 34.452903 25.430968
12660 3 32.671674 25.2181 34.533859
12661 3 32.671674 34.189634 43.635939
12662 3 32.671674 24.954831 52.738018
12663 3 35.357208 23.461154 22.957657
12664 3 35.357208 32.432687 32.060548
12665 3 35.357208 23.197885 41.162627
12666 3 35.357208 32.169782 50.264707
12667 3 35.357208 22.93498 59.367598
12668 3 35.456368 27.362485 27.02223
12669 3 35.456368 36.334383 36.125121
12670 3 35.456368 27.099216 45.2272
12671 3 35.456368 36.071114 54.330091
12672 3 32.624305 20.455592 24.892974
12673 3 32.624305 29.427489 33.995865
12674 3 32.624305 20.192687 43.097945
12675 3 32.624305 29.164584 52.200836
12676 3 35.645214 18.89018 27.071728
12677 3 35.645214 27.861713 36.174619
12678 3 35.645214 18.626911 45.276699
12679 3 35.645214 27.598808 54.37959
12680 3 32.771466 34.892048 20.567925
12681 3 32.771466 25.657246 29.670816
12682 3 32.771466 34.629143 38.772895
12683 3 32.771466 25.394341 47.874975
12684 3 32.771466 34.365875 56.977866
12685 1 42.231466 28.211282 22.906535
12686 1 42.231466 18.976479 32.008614
12687 1 42.231466 27.948377 41.111505
12688 1 42.231466 18.713575 50.213585
12689 1 42.231466 27.685108 59.315664
12690 1 41.832931 32.450166 27.540749
12691 1 41.832931 23.214999 36.64364
12692 1 41.832931 32.186897 45.745719
12693 1 41.832931 22.952094 54.84861
12694 1 42.081778 23.469529 27.019795
12695 1 42.081778 32.441426 36.121875
12696 1 42.081778 23.206624 45.224766
12697 1 42.081778 32.178157 54.326845
12698 1 41.932091 18.60397 22.628206
12699 1 41.932091 27.575868 31.730286
12700 1 41.932091 18.341065 40.832365
12701 1 41.932091 27.312963 49.935256
12702 1 41.932091 18.077797 59.037336
12703 1 47.853907 27.9451 22.015558
12704 1 47.853907 18.709933 31.118449
12705 1 47.853907 27.681831 40.220529
12706 1 47.853907 18.447028 49.322608
12707 1 47.853907 27.418926 58.425499
12708 1 48.244231 32.376246 27.023041
12709 1 48.244231 23.141444 36.125932
12710 1 48.244231 32.113342 45.228012
12711 1 48.244231 22.878539 54.330091
12712 1 48.129281 23.011812 27.504233
12713 1 48.129281 31.98371 36.607124
12714 1 48.129281 22.748908 45.709204
12715 1 48.129281 31.720441 54.812095
12716 1 48.428656 18.488904 22.615223
12717 1 48.428656 27.460801 31.717302
12718 1 48.428656 18.225999 40.820193
12719 1 48.428656 27.197897 49.922273
12720 1 48.428656 36.16943 59.025164
12721 4 41.897985 28.266266 21.621192
12722 4 41.897985 19.031099 30.723271
12723 4 41.897985 28.002997 39.825351
12724 4 41.897985 18.768195 48.928242
12725 4 41.897985 27.740092 58.030321
12726 4 41.673138 27.424388 23.780471
12727 4 41.673138 18.189586 32.88255
12728 4 41.673138 27.161483 41.98463
12729 4 41.673138 17.926317 51.087521
12730 4 41.673138 26.898214 60.1896
12731 4 42.005987 31.599549 26.561324
12732 4 42.005987 22.364746 35.664215
12733 4 42.005987 31.336644 44.766294
12734 4 42.005987 22.101841 53.868374
12735 4 42.407049 33.674748 27.527765
12736 4 42.407049 24.439946 36.629845
12737 4 42.407049 33.411843 45.731925
12738 4 42.407049 24.176677 54.834816
12739 4 42.747477 23.370484 28.140413
12740 4 42.747477 32.342018 37.242493
12741 4 42.747477 23.107215 46.345384
12742 4 42.747477 32.079113 55.447463
12743 4 41.480502 22.46197 26.418508
12744 4 41.480502 31.433868 35.520587
12745 4 41.480502 22.199065 44.622667
12746 4 41.480502 31.170599 53.725558
12747 4 43.182013 18.202695 22.811595
12748 4 43.182013 27.174592 31.913674
12749 4 43.182013 17.93979 41.016565
12750 4 43.182013 26.911687 50.118645
12751 4 43.182013 17.676521 59.220724
12752 4 41.584083 19.280895 21.578996
12753 4 41.584083 28.252793 30.681076
12754 4 41.584083 19.017991 39.783155
12755 4 41.584083 27.989888 48.886046
12756 4 41.584083 18.754722 57.988126
12757 4 47.613901 28.067085 23.270878
12758 4 47.613901 18.832282 32.373769
12759 4 47.613901 27.803816 41.475848
12760 4 47.613901 18.569013 50.578739
12761 4 47.613901 27.540911 59.680819
12762 4 48.932036 27.415285 21.497851
12763 4 48.932036 18.180118 30.59993
12764 4 48.932036 27.152016 39.70201
12765 4 48.932036 17.917213 48.804901
12766 4 48.932036 26.889111 57.90698
12767 4 48.480447 33.498507 27.651918
12768 4 48.480447 24.263341 36.754809
12769 4 48.480447 33.235238 45.856888
12770 4 48.480447 24.000436 54.958968
12771 4 49.165094 31.456808 26.745524
12772 4 49.165094 22.222006 35.848415
12773 4 49.165094 31.193903 44.950494
12774 4 49.165094 21.959101 54.052574
12775 4 47.611375 24.046681 26.97192
12776 4 47.611375 33.018215 36.07481
12777 4 47.611375 23.783412 45.17689
12778 4 47.611375 32.75531 54.279781
12779 4 48.387603 22.81518 28.791199
12780 4 48.387603 31.787078 37.893279
12781 4 48.387603 22.552275 46.99617
12782 4 48.387603 31.523809 56.098249
12783 4 48.344023 17.573471 23.532977
12784 4 48.344023 26.545004 32.635057
12785 4 48.344023 17.310202 41.737948
12786 4 48.344023 26.2821 50.840027
12787 4 48.344023 35.253997 59.942918
12788 4 48.061701 19.75609 22.711786
12789 4 48.061701 28.727988 31.813866
12790 4 48.061701 19.493185 40.916756
12791 4 48.061701 28.464719 50.018836
12792 4 48.061701 1.023217 59.121727
12793 2 41.147652 27.650515 21.282816
12794 2 41.147652 18.415713 30.385706
12795 2 41.147652 27.387246 39.487786
12796 2 41.147652 18.152444 48.589866
12797 2 41.147652 27.124342 57.692756
12798 2 40.742801 27.012188 23.583288
12799 2 40.742801 17.777022 32.686179
12800 2 40.742801 26.74892 41.788258
12801 2 40.742801 17.514117 50.891149
12802 2 40.742801 26.486015 59.993229
12803 2 43.10938 28.745102 23.206773
12804 2 43.10938 19.509936 32.308852
12805 2 43.10938 28.481833 41.411743
12806 2 43.10938 19.247031 50.513823
12807 2 43.10938 28.218928 59.615902
12808 2 42.403891 28.879832 21.05642
12809 2 42.403891 19.644665 30.159311
12810 2 42.403891 28.616563 39.26139
12811 2 42.403891 19.38176 48.36347
12812 2 42.403891 28.353658 57.466361
12813 2 42.147464 27.247419 24.735552
12814 2 42.147464 18.012252 33.838443
12815 2 42.147464 26.98415 42.940523
12816 2 42.147464 17.749348 52.042602
12817 2 42.147464 26.721245 61.145493
12818 2 42.523894 31.919986 25.735264
12819 2 42.523894 22.685184 34.837343
12820 2 42.523894 31.656718 43.939423
12821 2 42.523894 22.421915 53.042314
12822 2 43.150434 33.722086 26.864808
12823 2 43.150434 24.487283 35.967699
12824 2 43.150434 33.459181 45.069778
12825 2 43.150434 24.224378 54.172669
12826 2 41.268918 32.217848 28.373301
12827 2 41.268918 22.982682 37.47538
12828 2 41.268918 31.954579 46.578271
12829 2 41.268918 22.719777 55.680351
12830 2 41.393342 30.810834 26.433926
12831 2 41.393342 21.576032 35.536005
12832 2 41.393342 30.54793 44.638896
12833 2 41.393342 21.313127 53.740976
12834 2 42.65716 34.035605 28.423611
12835 2 42.65716 24.800803 37.52569
12836 2 42.65716 33.7727 46.62777
12837 2 42.65716 24.537898 55.730661
12838 2 41.59861 21.518135 26.855882
12839 2 41.59861 30.489668 35.957961
12840 2 41.59861 21.254866 45.060852
12841 2 41.59861 30.226763 54.162932
12842 2 40.770591 22.601797 25.725526
12843 2 40.770591 31.573695 34.827606
12844 2 40.770591 22.338528 43.929685
12845 2 40.770591 31.310426 53.032576
12846 2 41.978197 24.479636 26.611634
12847 2 41.978197 33.451534 35.714525
12848 2 41.978197 24.216732 44.816604
12849 2 41.978197 33.188265 53.919495
12850 2 42.8239 22.522052 28.663801
12851 2 42.8239 31.49395 37.765881
12852 2 42.8239 22.259147 46.868772
12853 2 42.8239 31.230681 55.970851
12854 2 43.135907 24.237123 28.536403
12855 2 43.135907 33.209021 37.639294
12856 2 43.135907 23.974218 46.741373
12857 2 43.135907 32.946116 55.844264
12858 2 43.992347 18.529687 22.343386
12859 2 43.992347 27.501584 31.445465
12860 2 43.992347 18.266782 40.548356
12861 2 43.992347 27.238316 49.650436
12862 2 43.992347 18.003513 58.752515
12863 2 40.732064 19.818357 21.612266
12864 2 40.732064 28.790255 30.715157
12865 2 40.732064 19.555088 39.817236
12866 2 40.732064 28.526986 48.920127
12867 2 40.732064 19.292183 58.022207
12868 2 41.150179 18.275521 23.319565
12869 2 41.150179 27.247055 32.422456
12870 2 41.150179 18.012252 41.524536
12871 2 41.150179 26.98415 50.626615
12872 2 41.150179 17.749348 59.729506
12873 2 42.210623 19.675981 20.887637
12874 2 42.210623 28.647878 29.990528
12875 2 42.210623 19.413076 39.092608
12876 2 42.210623 28.384609 48.194687
12877 2 42.210623 19.149807 57.297578
12878 2 43.397387 17.808702 23.697703
12879 2 43.397387 26.780235 32.799782
12880 2 43.397387 17.545433 41.902673
12881 2 43.397387 26.51733 51.004753
12882 2 43.397387 17.282528 60.106832
12883 2 46.701881 28.396626 23.469684
12884 2 46.701881 19.161459 32.571764
12885 2 46.701881 28.133357 41.674655
12886 2 46.701881 18.898555 50.776734
12887 2 46.701881 27.870452 59.879625
12888 2 48.048437 27.662532 24.032833
12889 2 48.048437 18.427729 33.134913
12890 2 48.048437 27.399627 42.236992
12891 2 48.048437 18.164825 51.339883
12892 2 48.048437 27.136358 60.441963
12893 2 49.686158 26.963759 21.992026
12894 2 49.686158 17.728592 31.094106
12895 2 49.686158 26.70049 40.196185
12896 2 49.686158 17.465687 49.299076
12897 2 49.686158 26.437585 58.401156
12898 2 47.166102 28.459621 21.411837
12899 2 47.166102 19.224819 30.514728
12900 2 47.166102 28.196716 39.616807
12901 2 47.166102 18.96155 48.719698
12902 2 47.166102 27.933447 57.821778
12903 2 48.877719 27.499764 20.450264
12904 2 48.877719 18.264597 29.552343
12905 2 48.877719 27.236495 38.655234
12906 2 48.877719 18.001693 47.757314
12907 2 48.877719 26.97359 56.859393
12908 2 47.716851 34.104426 27.642181
12909 2 47.716851 24.869624 36.745071
12910 2 47.716851 33.841522 45.847151
12911 2 47.716851 24.606719 54.950042
12912 2 49.443626 33.805108 27.928624
12913 2 49.443626 24.570306 37.030703
12914 2 49.443626 33.542203 46.133594
12915 2 49.443626 24.307401 55.235674
12916 2 50.115641 31.642152 27.110678
12917 2 50.115641 22.40735 36.212758
12918 2 50.115641 31.378883 45.314837
12919 2 50.115641 22.144081 54.417728
12920 2 47.272841 32.151212 26.58161
12921 2 47.272841 22.916409 35.68369
12922 2 47.272841 31.888307 44.786581
12923 2 47.272841 22.65314 53.88866
12924 2 48.881509 30.603642 26.306527
12925 2 48.881509 21.36884 35.409418
12926 2 48.881509 30.340737 44.511498
12927 2 48.881509 21.105935 53.614389
12928 2 49.116461 22.099292 28.982703
12929 2 49.116461 31.07119 38.084782
12930 2 49.116461 21.836388 47.187673
12931 2 49.116461 30.808285 56.289753
12932 2 48.090754 23.445496 29.569384
12933 2 48.090754 32.417393 38.671463
12934 2 48.090754 23.182591 47.774354
12935 2 48.090754 32.154489 56.876434
12936 2 47.435161 24.068893 25.966528
12937 2 47.435161 33.040791 35.068608
12938 2 47.435161 23.805624 44.171498
12939 2 47.435161 32.777522 53.273578
12940 2 47.330316 24.910043 27.576453
12941 2 47.330316 33.88194 36.679344
12942 2 47.330316 24.646774 45.781423
12943 2 47.330316 33.618672 54.883503
12944 2 48.376234 22.182315 26.871299
12945 2 48.376234 31.154213 35.973379
12946 2 48.376234 21.919046 45.075458
12947 2 48.376234 30.890944 54.178349
12948 2 48.859403 16.636554 23.313885
12949 2 48.859403 25.608452 32.415964
12950 2 48.859403 16.373285 41.518044
12951 2 48.859403 25.345183 50.620935
12952 2 48.859403 34.317081 59.723014
12953 2 48.441288 20.437749 22.130785
12954 2 48.441288 29.409647 31.232864
12955 2 48.441288 20.17448 40.334944
12956 2 48.441288 29.146378 49.437835
12957 2 48.441288 1.704875 58.539914
12958 2 47.958751 17.626635 24.484002
12959 2 47.958751 26.598168 33.586893
12960 2 47.958751 17.363366 42.688972
12961 2 47.958751 26.335263 51.791052
12962 2 47.958751 35.307161 60.893943
12963 2 47.387791 20.00006 23.436414
12964 2 47.387791 28.971958 32.538494
12965 2 47.387791 19.737155 41.641385
12966 2 47.387791 28.708689 50.743464
12967 2 47.387791 1.267186 59.846355
12968 2 48.836666 18.188857 21.622003
12969 2 48.836666 27.160755 30.724083
12970 2 48.836666 17.925953 39.826974
12971 2 48.836666 26.897486 48.929053
12972 2 48.836666 35.869384 58.031944
12973 6 38.834127 27.832582 26.984091
12974 6 38.834127 18.597416 36.086171
12975 6 38.834127 27.569313 45.189062
12976 6 38.834127 18.334511 54.291141
12977 6 38.674966 23.204439 22.703671
12978 6 38.674966 32.176337 31.806562
12979 6 38.674966 22.941534 40.908642
12980 6 38.674966 31.913068 50.010721
12981 6 38.674966 22.678266 59.113612
12982 6 39.074133 32.545569 22.722335
12983 6 39.074133 23.310766 31.825226
12984 6 39.074133 32.282664 40.927305
12985 6 39.074133 23.047497 50.030196
12986 6 39.074133 32.019395 59.132276
12987 6 39.259821 18.702651 26.885094
12988 6 39.259821 27.674184 35.987173
12989 6 39.259821 18.439382 45.090064
12990 6 39.259821 27.411279 54.192144
12991 6 45.374904 18.577024 27.562658
12992 6 45.374904 27.548922 36.664738
12993 6 45.374904 18.31412 45.766817
12994 6 45.374904 27.285653 54.869708
12995 6 45.262481 32.512797 22.822144
12996 6 45.262481 23.27763 31.925035
12997 6 45.262481 32.249528 41.027114
12998 6 45.262481 23.014725 50.130005
12999 6 45.262481 31.986623 59.232085
13000 6 44.870261 23.181499 22.948731
13001 6 44.870261 32.153396 32.05081
13002 6 44.870261 22.918594 41.153701
13003 6 44.870261 31.890127 50.255781
13004 6 44.870261 22.655325 59.35786
13005 6 45.178479 27.731717 27.427145
13006 6 45.178479 18.496915 36.529225
13007 6 45.178479 27.468448 45.632116
13008 6 45.178479 18.233646 54.734195
13009 3 39.348244 30.236231 24.800469
13010 3 39.348244 21.001064 33.902548
13011 3 39.348244 29.972962 43.004628
13012 3 39.348244 20.73816 52.107519
13013 3 38.700861 25.938357 24.73961
13014 3 38.700861 34.910255 33.841689
13015 3 38.700861 25.675452 42.94458
13016 3 38.700861 34.646986 52.04666
13017 3 41.78493 23.236847 22.676082
13018 3 41.78493 32.208381 31.778973
13019 3 41.78493 22.973578 40.881053
13020 3 41.78493 31.945476 49.983943
13021 3 41.78493 22.710673 59.086023
13022 3 39.138555 25.734078 20.226302
13023 3 39.138555 34.705612 29.328382
13024 3 39.138555 25.470809 38.431273
13025 3 39.138555 34.442707 47.533352
13026 3 39.138555 25.207904 56.636243
13027 3 39.011605 21.219545 20.240097
13028 3 39.011605 30.191442 29.342177
13029 3 39.011605 20.95664 38.445068
13030 3 39.011605 29.928173 47.547147
13031 3 39.011605 20.693371 56.650038
13032 3 39.089291 30.11024 19.999907
13033 3 39.089291 20.875438 29.102798
13034 3 39.089291 29.847336 38.204877
13035 3 39.089291 20.612533 47.306957
13036 3 39.089291 29.584067 56.409848
13037 3 41.879669 27.613374 27.39063
13038 3 41.879669 18.378207 36.493521
13039 3 41.879669 27.350105 45.5956
13040 3 41.879669 36.322002 54.69768
13041 3 38.590964 34.43506 20.174369
13042 3 38.590964 25.199893 29.276449
13043 3 38.590964 34.171791 38.378528
13044 3 38.590964 24.936989 47.481419
13045 3 38.590964 33.908886 56.583499
13046 3 38.853707 35.027506 24.472641
13047 3 38.853707 25.792704 33.574721
13048 3 38.853707 34.764601 42.677612
13049 3 38.853707 25.529435 51.779691
13050 3 42.203676 18.986675 27.018984
13051 3 42.203676 27.958573 36.121063
13052 3 42.203676 18.72377 45.223954
13053 3 42.203676 27.695304 54.326034
13054 3 42.100095 32.885306 23.018516
13055 3 42.100095 23.650139 32.120595
13056 3 42.100095 32.622037 41.222675
13057 3 42.100095 23.387234 50.325566
13058 3 42.100095 32.359132 59.427645
13059 3 38.819601 20.954819 24.780994
13060 3 38.819601 29.926717 33.883073
13061 3 38.819601 20.691915 42.985964
13062 3 38.819601 29.663448 52.088044
13063 3 44.416778 26.163392 21.09537
13064 3 44.416778 35.134926 30.197449
13065 3 44.416778 25.900123 39.30034
13066 3 44.416778 34.872021 48.40242
13067 3 44.416778 25.637218 57.504499
13068 3 44.977001 30.229312 20.64907
13069 3 44.977001 20.99451 29.751149
13070 3 44.977001 29.966408 38.85404
13071 3 44.977001 20.731605 47.95612
13072 3 44.977001 29.703139 57.058199
13073 3 44.748996 25.814552 25.081232
13074 3 44.748996 34.786449 34.183311
13075 3 44.748996 25.551283 43.285391
13076 3 44.748996 34.52318 52.388282
13077 3 48.390761 32.404649 23.266009
13078 3 48.390761 23.169846 32.368089
13079 3 48.390761 32.141744 41.47098
13080 3 48.390761 22.906942 50.573059
13081 3 48.390761 31.878475 59.675139
13082 3 44.803313 30.2406 25.120181
13083 3 44.803313 21.005434 34.222261
13084 3 44.803313 29.977332 43.325152
13085 3 44.803313 20.742529 52.427231
13086 3 45.135531 21.272708 20.498139
13087 3 45.135531 30.244606 29.600219
13088 3 45.135531 21.009804 38.70311
13089 3 45.135531 29.981337 47.80519
13090 3 45.135531 20.746535 56.90808
13091 3 45.303534 34.452903 25.430968
13092 3 45.303534 25.2181 34.533859
13093 3 45.303534 34.189634 43.635939
13094 3 45.303534 24.954831 52.738018
13095 3 47.989068 23.461154 22.957657
13096 3 47.989068 32.432687 32.060548
13097 3 47.989068 23.197885 41.162627
13098 3 47.989068 32.169782 50.264707
13099 3 47.989068 22.93498 59.367598
13100 3 48.088228 27.362485 27.02223
13101 3 48.088228 36.334383 36.125121
13102 3 48.088228 27.099216 45.2272
13103 3 48.088228 36.071114 54.330091
13104 3 45.256165 20.455592 24.892974
13105 3 45.256165 29.427489 33.995865
13106 3 45.256165 20.192687 43.097945
13107 3 45.256165 29.164584 52.200836
13108 3 48.277074 18.89018 27.071728
13109 3 48.277074 27.861713 36.174619
13110 3 48.277074 18.626911 45.276699
13111 3 48.277074 27.598808 54.37959
13112 3 45.403326 34.892048 20.567925
13113 3 45.403326 25.657246 29.670816
13114 3 45.403326 34.629143 38.772895
13115 3 45.403326 25.394341 47.874975
13116 3 45.403326 34.365875 56.977866
13117 1 54.863326 28.211282 22.906535
13118 1 54.863326 18.976479 32.008614
13119 1 54.863326 27.948377 41.111505
13120 1 54.863326 18.713575 50.213585
13121 1 54.863326 27.685108 59.315664
13122 1 54.464791 32.450166 27.540749
13123 1 54.464791 23.214999 36.64364
13124 1 54.464791 32.186897 45.745719
13125 1 54.464791 22.952094 54.84861
13126 1 54.713638 23.469529 27.019795
13127 1 54.713638 32.441426 36.121875
13128 1 54.713638 23.206624 45.224766
13129 1 54.713638 32.178157 54.326845
13130 1 54.563951 18.60397 22.628206
13131 1 54.563951 27.575868 31.730286
13132 1 54.563951 18.341065 40.832365
13133 1 54.563951 27.312963 49.935256
13134 1 54.563951 18.077797 59.037336
13135 1 60.485767 27.9451 22.015558
13136 1 60.485767 18.709933 31.118449
13137 1 60.485767 27.681831 40.220529
13138 1 60.485767 18.447028 49.322608
13139 1 60.485767 27.418926 58.425499
13140 1 60.876091 32.376246 27.023041
13141 1 60.876091 23.141444 36.125932
13142 1 60.876091 32.113342 45.228012
13143 1 60.876091 22.878539 54.330091
13144 1 60.761141 23.011812 27.504233
13145 1 60.761141 31.98371 36.607124
13146 1 60.761141 22.748908 45.709204
13147 1 60.761141 31.720441 54.812095
13148 1 61.060516 18.488904 22.615223
13149 1 61.060516 27.460801 31.717302
13150 1 61.060516 18.225999 40.820193
13151 1 61.060516 27.197897 49.922273
13152 1 61.060516 36.16943 59.025164
13153 4 54.529845 28.266266 21.621192
13154 4 54.529845 19.031099 30.723271
13155 4 54.529845 28.002997 39.825351
13156 4 54.529845 18.768195 48.928242
13157 4 54.529845 27.740092 58.030321
13158 4 54.304998 27.424388 23.780471
13159 4 54.304998 18.189586 32.88255
13160 4 54.304998 27.161483 41.98463
13161 4 54.304998 17.926317 51.087521
13162 4 54.304998 26.898214 60.1896
13163 4 54.637847 31.599549 26.561324
13164 4 54.637847 22.364746 35.664215
13165 4 54.637847 31.336644 44.766294
13166 4 54.637847 22.101841 53.868374
13167 4 55.038909 33.674748 27.527765
13168 4 55.038909 24.439946 36.629845
13169 4 55.038909 33.411843 45.731925
13170 4 55.038909 24.176677 54.834816
13171 4 55.379337 23.370484 28.140413
13172 4 55.379337 32.342018 37.242493
13173 4 55.379337 23.107215 46.345384
13174 4 55.379337 32.079113 55.447463
13175 4 54.112362 22.46197 26.418508
13176 4 54.112362 31.433868 35.520587
13177 4 54.112362 22.199065 44.622667
13178 4 54.112362 31.170599 53.725558
13179 4 55.813873 18.202695 22.811595
13180 4 55.813873 27.174592 31.913674
13181 4 55.813873 17.93979 41.016565
13182 4 55.813873 26.911687 50.118645
13183 4 55.813873 17.676521 59.220724
13184 4 54.215943 19.280895 21.578996
13185 4 54.215943 28.252793 30.681076
13186 4 54.215943 19.017991 39.783155
13187 4 54.215943 27.989888 48.886046
13188 4 54.215943 18.754722 57.988126
13189 4 60.245761 28.067085 23.270878
13190 4 60.245761 18.832282 32.373769
13191 4 60.245761 27.803816 41.475848
13192 4 60.245761 18.569013 50.578739
13193 4 60.245761 27.540911 59.680819
13194 4 61.563896 27.415285 21.497851
13195 4 61.563896 18.180118 30.59993
13196 4 61.563896 27.152016 39.70201
13197 4 61.563896 17.917213 48.804901
13198 4 61.563896 26.889111 57.90698
13199 4 61.112307 33.498507 27.651918
13200 4 61.112307 24.263341 36.754809
13201 4 61.112307 33.235238 45.856888
13202 4 61.112307 24.000436 54.958968
13203 4 61.796954 31.456808 26.745524
13204 4 61.796954 22.222006 35.848415
13205 4 61.796954 31.193903 44.950494
13206 4 61.796954 21.959101 54.052574
13207 4 60.243235 24.046681 26.97192
13208 4 60.243235 33.018215 36.07481
13209 4 60.243235 23.783412 45.17689
13210 4 60.243235 32.75531 54.279781
13211 4 61.019463 22.81518 28.791199
13212 4 61.019463 31.787078 37.893279
13213 4 61.019463 22.552275 46.99617
13214 4 61.019463 31.523809 56.098249
13215 4 60.975883 17.573471 23.532977
13216 4 60.975883 26.545004 32.635057
13217 4 60.975883 17.310202 41.737948
13218 4 60.975883 26.2821 50.840027
13219 4 60.975883 35.253997 59.942918
13220 4 60.693561 19.75609 22.711786
13221 4 60.693561 28.727988 31.813866
13222 4 60.693561 19.493185 40.916756
13223 4 60.693561 28.464719 50.018836
13224 4 60.693561 1.023217 59.121727
13225 2 53.779512 27.650515 21.282816
13226 2 53.779512 18.415713 30.385706
13227 2 53.779512 27.387246 39.487786
13228 2 53.779512 18.152444 48.589866
13229 2 53.779512 27.124342 57.692756
13230 2 53.374661 27.012188 23.583288
13231 2 53.374661 17.777022 32.686179
13232 2 53.374661 26.74892 41.788258
13233 2 53.374661 17.514117 50.891149
13234 2 53.374661 26.486015 59.993229
13235 2 55.74124 28.745102 23.206773
13236 2 55.74124 19.509936 32.308852
13237 2 55.74124 28.481833 41.411743
13238 2 55.74124 19.247031 50.513823
13239 2 55.74124 28.218928 59.615902
13240 2 55.035751 28.879832 21.05642
13241 2 55.035751 19.644665 30.159311
13242 2 55.035751 28.616563 39.26139
13243 2 55.035751 19.38176 48.36347
13244 2 55.035751 28.353658 57.466361
13245 2 54.779324 27.247419 24.735552
13246 2 54.779324 18.012252 33.838443
13247 2 54.779324 26.98415 42.940523
13248 2 54.779324 17.749348 52.042602
13249 2 54.779324 26.721245 61.145493
13250 2 55.155754 31.919986 25.735264
13251 2 55.155754 22.685184 34.837343
13252 2 55.155754 31.656718 43.939423
13253 2 55.155754 22.421915 53.042314
13254 2 55.782294 33.722086 26.864808
13255 2 55.782294 24.487283 35.967699
13256 2 55.782294 33.459181 45.069778
13257 2 55.782294 24.224378 54.172669
13258 2 53.900778 32.217848 28.373301
13259 2 53.900778 22.982682 37.47538
13260 2 53.900778 31.954579 46.578271
13261 2 53.900778 22.719777 55.680351
13262 2 54.025202 30.810834 26.433926
13263 2 54.025202 21.576032 35.536005
13264 2 54.025202 30.54793 44.638896
13265 2 54.025202 21.313127 53.740976
13266 2 55.28902 34.035605 28.423611
13267 2 55.28902 24.800803 37.52569
13268 2 55.28902 33.7727 46.62777
13269 2 55.28902 24.537898 55.730661
13270 2 54.23047 21.518135 26.855882
13271 2 54.23047 30.489668 35.957961
13272 2 54.23047 21.254866 45.060852
13273 2 54.23047 30.226763 54.162932
13274 2 53.402451 22.601797 25.725526
13275 2 53.402451 31.573695 34.827606
13276 2 53.402451 22.338528 43.929685
13277 2 53.402451 31.310426 53.032576
13278 2 54.610057 24.479636 26.611634
13279 2 54.610057 33.451534 35.714525
13280 2 54.610057 24.216732 44.816604
13281 2 54.610057 33.188265 53.919495
13282 2 55.45576 22.522052 28.663801
13283 2 55.45576 31.49395 37.765881
13284 2 55.45576 22.259147 46.868772
13285 2 55.45576 31.230681 55.970851
13286 2 55.767767 24.237123 28.536403
13287 2 55.767767 33.209021 37.639294
13288 2 55.767767 23.974218 46.741373
13289 2 55.767767 32.946116 55.844264
13290 2 56.624207 18.529687 22.343386
13291 2 56.624207 27.501584 31.445465
13292 2 56.624207 18.266782 40.548356
13293 2 56.624207 27.238316 49.650436
13294 2 56.624207 18.003513 58.752515
13295 2 53.363924 19.818357 21.612266
13296 2 53.363924 28.790255 30.715157
13297 2 53.363924 19.555088 39.817236
13298 2 53.363924 28.526986 48.920127
13299 2 53.363924 19.292183 58.022207
13300 2 53.782039 18.275521 23.319565
13301 2 53.782039 27.247055 32.422456
13302 2 53.782039 18.012252 41.524536
13303 2 53.782039 26.98415 50.626615
13304 2 53.782039 17.749348 59.729506
13305 2 54.842483 19.675981 20.887637
13306 2 54.842483 28.647878 29.990528
13307 2 54.842483 19.413076 39.092608
13308 2 54.842483 28.384609 48.194687
13309 2 54.842483 19.149807 57.297578
13310 2 56.029247 17.808702 23.697703
13311 2 56.029247 26.780235 32.799782
13312 2 56.029247 17.545433 41.902673
13313 2 56.029247 26.51733 51.004753
13314 2 56.029247 17.282528 60.106832
13315 2 59.333741 28.396626 23.469684
13316 2 59.333741 19.161459 32.571764
13317 2 59.333741 28.133357 41.674655
13318 2 59.333741 18.898555 50.776734
13319 2 59.333741 27.870452 59.879625
13320 2 60.680297 27.662532 24.032833
13321 2 60.680297 18.427729 33.134913
13322 2 60.680297 27.399627 42.236992
13323 2 60.680297 18.164825 51.339883
13324 2 60.680297 27.136358 60.441963
13325 2 62.318018 26.963759 21.992026
13326 2 62.318018 17.728592 31.094106
13327 2 62.318018 26.70049 40.196185
13328 2 62.318018 17.465687 49.299076
13329 2 62.318018 26.437585 58.401156
13330 2 59.797962 28.459621 21.411837
13331 2 59.797962 19.224819 30.514728
13332 2 59.797962 28.196716 39.616807
13333 2 59.797962 18.96155 48.719698
13334 2 59.797962 27.933447 57.821778
13335 2 61.509579 27.499764 20.450264
13336 2 61.509579 18.264597 29.552343
13337 2 61.509579 27.236495 38.655234
13338 2 61.509579 18.001693 47.757314
13339 2 61.509579 26.97359 56.859393
13340 2 60.348711 34.104426 27.642181
13341 2 60.348711 24.869624 36.745071
13342 2 60.348711 33.841522 45.847151
13343 2 60.348711 24.606719 54.950042
13344 2 62.075486 33.805108 27.928624
13345 2 62.075486 24.570306 37.030703
13346 2 62.075486 33.542203 46.133594
13347 2 62.075486 24.307401 55.235674
13348 2 62.747501 31.642152 27.110678
13349 2 62.747501 22.40735 36.212758
13350 2 62.747501 31.378883 45.314837
13351 2 62.747501 22.144081 54.417728
13352 2 59.904701 32.151212 26.58161
13353 2 59.904701 22.916409 35.68369
13354 2 59.904701 31.888307 44.786581
13355 2 59.904701 22.65314 53.88866
13356 2 61.513369 30.603642 26.306527
13357 2 61.513369 21.36884 35.409418
13358 2 61.513369 30.340737 44.511498
13359 2 61.513369 21.105935 53.614389
13360 2 61.748321 22.099292 28.982703
13361 2 61.748321 31.07119 38.084782
13362 2 61.748321 21.836388 47.187673
13363 2 61.748321 30.808285 56.289753
13364 2 60.722614 23.445496 29.569384
13365 2 60.722614 32.417393 38.671463
13366 2 60.722614 23.182591 47.774354
13367 2 60.722614 32.154489 56.876434
13368 2 60.067021 24.068893 25.966528
13369 2 60.067021 33.040791 35.068608
13370 2 60.067021 23.805624 44.171498
13371 2 60.067021 32.777522 53.273578
13372 2 59.962176 24.910043 27.576453
13373 2 59.962176 33.88194 36.679344
13374 2 59.962176 24.646774 45.781423
13375 2 59.962176 33.618672 54.883503
13376 2 61.008094 22.182315 26.871299
13377 2 61.008094 31.154213 35.973379
13378 2 61.008094 21.919046 45.075458
13379 2 61.008094 30.890944 54.178349
13380 2 61.491263 16.636554 23.313885
13381 2 61.491263 25.608452 32.415964
13382 2 61.491263 16.373285 41.518044
13383 2 61.491263 25.345183 50.620935
13384 2 61.491263 34.317081 59.723014
13385 2 61.073148 20.437749 22.130785
13386 2 61.073148 29.409647 31.232864
13387 2 61.073148 20.17448 40.334944
13388 2 61.073148 29.146378 49.437835
13389 2 61.073148 1.704875 58.539914
13390 2 60.590611 17.626635 24.484002
13391 2 60.590611 26.598168 33.586893
13392 2 60.590611 17.363366 42.688972
13393 2 60.590611 26.335263 51.791052
13394 2 60.590611 35.307161 60.893943
13395 2 60.019651 20.00006 23.436414
13396 2 60.019651 28.971958 32.538494
13397 2 60.019651 19.737155 41.641385
13398 2 60.019651 28.708689 50.743464
13399 2 60.019651 1.267186 59.846355
13400 2 61.468526 18.188857 21.622003
13401 2 61.468526 27.160755 30.724083
13402 2 61.468526 17.925953 39.826974
13403 2 61.468526 26.897486 48.929053
13404 2 61.468526 35.869384 58.031944
13405 6 51.465987 27.832582 26.984091
13406 6 51.465987 18.597416 36.086171
13407 6 51.465987 27.569313 45.189062
13408 6 51.465987 18.334511 54.291141
13409 6 51.306826 23.204439 22.703671
13410 6 51.306826 32.176337 31.806562
13411 6 51.306826 22.941534 40.908642
13412 6 51.306826 31.913068 50.010721
13413 6 51.306826 22.678266 59.113612
13414 6 51.705993 32.545569 22.722335
13415 6 51.705993 23.310766 31.825226
13416 6 51.705993 32.282664 40.927305
13417 6 51.705993 23.047497 50.030196
13418 6 51.705993 32.019395 59.132276
13419 6 51.891681 18.702651 26.885094
13420 6 51.891681 27.674184 35.987173
13421 6 51.891681 18.439382 45.090064
13422 6 51.891681 27.411279 54.192144
13423 6 58.006764 18.577024 27.562658
13424 6 58.006764 27.548922 36.664738
13425 6 58.006764 18.31412 45.766817
13426 6 58.006764 27.285653 54.869708
13427 6 57.894341 32.512797 22.822144
13428 6 57.894341 23.27763 31.925035
13429 6 57.894341 32.249528 41.027114
13430 6 57.894341 23.014725 50.130005
13431 6 57.894341 31.986623 59.232085
13432 6 57.502121 23.181499 22.948731
13433 6 57.502121 32.153396 32.05081
13434 6 57.502121 22.918594 41.153701
13435 6 57.502121 31.890127 50.255781
13436 6 57.502121 22.655325 59.35786
13437 6 57.810339 27.731717 27.427145
13438 6 57.810339 18.496915 36.529225
13439 6 57.810339 27.468448 45.632116
13440 6 57.810339 18.233646 54.734195
13441 3 51.980104 30.236231 24.800469
13442 3 51.980104 21.001064 33.902548
13443 3 51.980104 29.972962 43.004628
13444 3 51.980104 20.73816 52.107519
13445 3 51.332721 25.938357 24.73961
13446 3 51.332721 34.910255 33.841689
13447 3 51.332721 25.675452 42.94458
13448 3 51.332721 34.646986 52.04666
13449 3 54.41679 23.236847 22.676082
13450 3 54.41679 32.208381 31.778973
13451 3 54.41679 22.973578 40.881053
13452 3 54.41679 31.945476 49.983943
13453 3 54.41679 22.710673 59.086023
13454 3 51.770415 25.734078 20.226302
13455 3 51.770415 34.705612 29.328382
13456 3 51.770415 25.470809 38.431273
13457 3 51.770415 34.442707 47.533352
13458 3 51.770415 25.207904 56.636243
13459 3 51.643465 21.219545 20.240097
13460 3 51.643465 30.191442 29.342177
13461 3 51.643465 20.95664 38.445068
13462 3 51.643465 29.928173 47.547147
13463 3 51.643465 20.693371 56.650038
13464 3 51.721151 30.11024 19.999907
13465 3 51.721151 20.875438 29.102798
13466 3 51.721151 29.847336 38.204877
13467 3 51.721151 20.612533 47.306957
13468 3 51.721151 29.584067 56.409848
13469 3 54.511529 27.613374 27.39063
13470 3 54.511529 18.378207 36.493521
13471 3 54.511529 27.350105 45.5956
13472 3 54.511529 36.322002 54.69768
13473 3 51.222824 34.43506 20.174369
13474 3 51.222824 25.199893 29.276449
13475 3 51.222824 34.171791 38.378528
13476 3 51.222824 24.936989 47.481419
13477 3 51.222824 33.908886 56.583499
13478 3 51.485567 35.027506 24.472641
13479 3 51.485567 25.792704 33.574721
13480 3 51.485567 34.764601 42.677612
13481 3 51.485567 25.529435 51.779691
13482 3 54.835536 18.986675 27.018984
13483 3 54.835536 27.958573 36.121063
13484 3 54.835536 18.72377 45.223954
13485 3 54.835536 27.695304 54.326034
13486 3 54.731955 32.885306 23.018516
13487 3 54.731955 23.650139 32.120595
13488 3 54.731955 32.622037 41.222675
13489 3 54.731955 23.387234 50.325566
13490 3 54.731955 32.359132 59.427645
13491 3 51.451461 20.954819 24.780994
13492 3 51.451461 29.926717 33.883073
13493 3 51.451461 20.691915 42.985964
13494 3 51.451461 29.663448 52.088044
13495 3 57.048638 26.163392 21.09537
13496 3 57.048638 35.134926 30.197449
13497 3 57.048638 25.900123 39.30034
13498 3 57.048638 34.872021 48.40242
13499 3 57.048638 25.637218 57.504499
13500 3 57.608861 30.229312 20.64907
13501 3 57.608861 20.99451 29.751149
13502 3 57.608861 29.966408 38.85404
13503 3 57.608861 20.731605 47.95612
13504 3 57.608861 29.703139 57.058199
13505 3 57.380856 25.814552 25.081232
13506 3 57.380856 34.786449 34.183311
13507 3 57.380856 25.551283 43.285391
13508 3 57.380856 34.52318 52.388282
13509 3 61.022621 32.404649 23.266009
13510 3 61.022621 23.169846 32.368089
13511 3 61.022621 32.141744 41.47098
13512 3 61.022621 22.906942 50.573059
13513 3 61.022621 31.878475 59.675139
13514 3 57.435173 30.2406 25.120181
13515 3 57.435173 21.005434 34.222261
13516 3 57.435173 29.977332 43.325152
13517 3 57.435173 20.742529 52.427231
13518 3 57.767391 21.272708 20.498139
13519 3 57.767391 30.244606 29.600219
13520 3 57.767391 21.009804 38.70311
13521 3 57.767391 29.981337 47.80519
13522 3 57.767391 20.746535 56.90808
13523 3 57.935394 34.452903 25.430968
13524 3 57.935394 25.2181 34.533859
13525 3 57.935394 34.189634 43.635939
13526 3 57.935394 24.954831 52.738018
13527 3 60.620928 23.461154 22.957657
13528 3 60.620928 32.432687 32.060548
13529 3 60.620928 23.197885 41.162627
13530 3 60.620928 32.169782 50.264707
13531 3 60.620928 22.93498 59.367598
13532 3 60.720088 27.362485 27.02223
13533 3 60.720088 36.334383 36.125121
13534 3 60.720088 27.099216 45.2272
13535 3 60.720088 36.071114 54.330091
13536 3 57.888025 20.455592 24.892974
13537 3 57.888025 29.427489 33.995865
13538 3 57.888025 20.192687 43.097945
13539 3 57.888025 29.164584 52.200836
13540 3 60.908934 18.89018 27.071728
13541 3 60.908934 27.861713 36.174619
13542 3 60.908934 18.626911 45.276699
13543 3 60.908934 27.598808 54.37959
13544 3 58.035186 34.892048 20.567925
13545 3 58.035186 25.657246 29.670816
13546 3 58.035186 34.629143 38.772895
13547 3 58.035186 25.394341 47.874975
13548 3 58.035186 34.365875 56.977866
