# LAMMPS data file written by OVITO Basic 3.10.6

4620 atoms
6 atom types

0.0 38.9003 xlo xhi
0.0 63.1593 ylo yhi
0.0 77.6016 zlo zhi

Atom Type Labels

1 C
2 H
3 I
4 N
5 O
6 Pb

Masses

1 12.0107  # C
2 1.00794  # H
3 126.90447  # I
4 14.0067  # N
5 15.9994  # O
6 207.2  # Pb

Atoms  # atomic

1 2 9.104309 6.76382 16.253296
2 2 8.710292 6.167342 17.702731
3 5 9.276812 6.019281 16.877103
4 2 22.633378 26.880611 16.694563
5 2 21.98697 26.819339 18.174529
6 5 21.841784 26.581255 17.20151
7 2 24.672252 44.247916 15.989972
8 2 24.178429 44.272443 17.528618
9 5 24.09725 43.785655 16.64489
10 2 6.984982 10.625375 18.071118
11 2 7.492537 12.15295 17.926893
12 5 7.742228 11.229516 18.257727
13 2 13.162081 38.870355 17.656947
14 2 12.935169 39.392354 19.169535
15 5 12.482754 39.221102 18.280423
16 2 22.901225 48.29219 17.45418
17 2 23.530961 48.604601 15.998939
18 5 23.561913 48.850844 16.98023
19 2 25.731685 26.503107 18.208664
20 2 26.040009 27.665974 17.12951
21 5 26.404903 27.169195 17.932374
22 2 25.113608 15.947308 18.489979
23 2 24.640545 15.746306 16.957757
24 5 24.329647 15.98075 17.892051
25 2 36.412666 56.260038 18.114973
26 2 37.9003 56.514463 17.536952
27 5 37.283221 56.674826 18.323097
28 2 13.472529 43.962641 16.52846
29 2 13.647092 42.358574 16.436857
30 5 14.137625 43.243576 16.410884
31 2 9.195985 9.418428 17.581161
32 2 9.856061 9.493679 16.107888
33 5 9.934437 9.073436 17.025374
34 2 9.842934 27.523637 16.113338
35 2 9.443996 28.770345 17.061211
36 5 9.077655 28.018325 16.49131
37 2 6.588452 20.33354 17.433113
38 2 6.117051 19.754659 15.999734
39 5 5.861475 20.363482 16.7669
40 2 11.17079 20.112773 17.863765
41 2 10.067688 19.851135 19.01555
42 5 11.049546 19.773567 18.782171
43 2 12.656703 37.112925 18.987836
44 2 11.080602 36.857569 18.737642
45 5 12.014031 36.558952 18.484528
46 2 33.998149 7.066192 17.210425
47 2 34.215947 8.213716 16.093443
48 5 34.007192 8.042478 17.068957
49 2 26.714635 44.156949 18.694715
50 2 25.463862 45.093909 19.106505
51 5 25.783504 44.137414 19.020054
52 2 8.404449 50.679839 15.999188
53 2 9.96796 50.797911 16.390835
54 5 9.066087 51.253055 16.45404
55 2 21.819595 59.462738 16.758498
56 2 23.36961 59.209931 16.377135
57 5 22.68036 59.917379 16.598444
58 2 24.882463 56.5219 17.978972
59 2 26.198977 56.123898 18.827665
60 5 25.775921 56.839904 18.250702
61 2 13.773176 22.673555 17.576944
62 2 13.778933 22.336953 15.99626
63 5 13.634266 21.950384 16.920469
64 2 10.234206 54.701102 18.310965
65 2 10.026805 54.588002 16.712188
66 5 9.570516 54.494688 17.610865
67 2 12.173795 56.81702 17.49453
68 2 11.279119 56.898326 16.151087
69 5 11.333233 57.175719 17.123019
70 2 27.794132 14.377893 18.088308
71 2 27.094912 14.212494 19.535937
72 5 26.992283 14.029897 18.545658
73 2 37.281954 8.242203 17.515809
74 2 37.366322 8.85444 16.022509
75 5 37.90028 8.631583 16.853021
76 2 27.404602 40.35828 16.40514
77 2 26.965427 40.386634 17.960201
78 5 27.293922 39.795023 17.207463
79 2 10.05717 24.167522 16.246254
80 2 8.659725 23.484274 16.684675
81 5 9.081167 24.200086 16.106292
82 2 10.318519 22.08815 17.031874
83 2 10.50767 20.948694 15.901495
84 5 10.738831 21.899766 16.159475
85 2 19.886161 25.857446 18.313195
86 2 18.752186 26.438566 17.319064
87 5 19.440848 25.707658 17.445732
88 2 9.831867 18.734101 16.117758
89 2 8.844029 19.823452 16.788121
90 5 8.883526 18.940798 16.294271
91 2 12.255565 33.964012 15.999551
92 2 12.712085 34.463652 17.46715
93 5 13.02743 34.288098 16.521494
94 2 25.557824 23.462593 18.321511
95 2 25.629982 22.769266 16.863434
96 5 25.991497 23.520592 17.437319
97 2 23.968296 25.247139 17.627756
98 2 24.147419 24.704237 16.116112
99 5 24.016188 24.427487 17.080848
100 2 26.890022 11.132876 18.28333
101 2 26.42933 10.171889 19.498304
102 5 27.177902 10.377467 18.848763
103 2 36.671059 5.094993 18.542967
104 2 36.969883 4.163219 17.256732
105 5 37.237382 5.011697 17.739492
106 2 21.709733 20.8931 18.137289
107 2 21.814284 21.755574 19.500045
108 5 21.178748 21.397177 18.798494
109 2 11.944796 12.51198 17.796325
110 2 11.729227 13.744355 18.819397
111 5 11.256732 13.044261 18.261594
112 2 22.795096 18.176895 17.656074
113 2 23.47322 18.611955 19.057062
114 5 23.334256 18.879431 18.090794
115 2 24.637722 9.162193 17.526513
116 2 24.607524 8.63804 15.998034
117 5 24.057349 8.757134 16.839254
118 2 34.121129 38.091262 17.300004
119 2 34.35055 38.710047 18.775255
120 5 33.707976 38.656486 17.995027
121 2 9.501408 33.068588 17.272016
122 2 10.997501 32.718974 17.773385
123 5 10.154432 32.335067 17.365492
124 2 21.425271 24.372686 16.527973
125 2 20.513958 23.130896 16.038727
126 5 20.599729 23.869846 16.725111
127 2 11.966305 30.273685 17.380637
128 2 12.606458 28.988077 18.121792
129 5 12.667882 29.584152 17.306041
130 2 9.952034 39.349719 18.194206
131 2 10.271721 40.237163 19.50651
132 5 9.588779 40.053536 18.782355
133 2 23.721338 12.640358 16.01535
134 2 23.193917 14.049207 16.605999
135 5 23.845243 13.617644 15.962528
136 2 20.789863 12.505298 16.220776
137 2 19.454844 13.070592 16.934963
138 5 19.935468 12.968014 16.050087
139 2 19.307982 62.160178 16.516799
140 2 20.208149 60.854616 16.205184
141 5 20.20927 61.77457 16.627335
142 2 10.862421 59.35155 18.147332
143 2 9.380419 59.639581 17.570615
144 5 9.960643 59.661939 18.399692
145 2 26.144878 12.832463 15.989228
146 2 25.394369 12.875144 17.419896
147 5 25.897635 13.426941 16.736689
148 2 32.952017 21.923932 17.406868
149 2 32.332518 22.422757 15.999996
150 5 33.026077 21.822741 16.428346
151 2 19.827277 13.635239 19.14602
152 2 21.371242 13.972587 19.484051
153 5 20.440088 14.362256 19.408963
154 2 13.346657 45.8456 18.257341
155 2 13.32931 44.81321 19.50063
156 5 13.729932 44.99962 18.589981
157 2 27.487452 57.828895 17.237548
158 2 26.616618 59.144947 16.888909
159 5 26.787524 58.179556 16.637241
160 2 35.77313 40.759379 16.520836
161 2 34.624631 41.606343 17.279451
162 5 34.93524 41.260774 16.380212
163 2 10.904315 62.134849 17.344083
164 2 12.097728 61.511304 16.450297
165 5 11.497112 61.352008 17.249305
166 2 24.993721 41.372151 19.291776
167 2 24.784983 42.086488 17.857187
168 5 25.447685 41.91209 18.602129
169 2 13.38834 14.618308 16.550404
170 2 13.24372 15.890987 17.535933
171 5 13.126954 14.888235 17.46257
172 2 22.611016 6.554063 17.571149
173 2 22.887341 6.811837 15.999814
174 5 23.325426 6.682981 16.903144
175 2 37.698995 20.438651 18.151627
176 2 37.304535 21.693943 17.213257
177 5 36.94521 21.005697 17.862664
178 2 5.379707 42.310652 17.18339
179 2 5.254829 40.778071 16.685899
180 5 4.768374 41.537291 17.145763
181 2 5.054926 44.978747 15.997281
182 2 5.21282 44.700343 17.581408
183 5 5.703559 44.726639 16.696529
184 2 14.746469 36.415198 17.404083
185 2 14.102801 36.889274 15.999505
186 5 14.557535 37.206644 16.846276
187 2 10.638713 4.12224 17.54403
188 2 11.908887 3.290772 18.098301
189 5 11.583033 3.903071 17.361119
190 2 11.428234 43.202558 17.166854
191 2 10.987011 42.634663 18.614167
192 5 10.647345 43.014892 17.739764
193 2 23.773247 62.1546 17.377475
194 2 24.641964 60.798911 17.516517
195 5 24.680843 61.809721 17.552286
196 2 35.085937 43.739321 16.975716
197 2 36.31495 43.903237 18.012323
198 5 36.060229 43.883243 17.032912
199 2 36.144806 38.590999 16.476369
200 2 37.279543 38.473656 17.621138
201 5 36.937363 38.074495 16.756204
202 2 9.344811 37.651071 16.893508
203 2 10.646131 38.000041 16.000938
204 5 10.294917 37.424121 16.755585
205 2 26.806801 8.693266 15.998073
206 2 26.839194 8.181577 17.530725
207 5 26.699396 7.896402 16.569653
208 2 10.438877 17.633749 18.193685
209 2 12.040954 17.845895 18.209224
210 5 11.292473 17.204585 18.439497
211 2 6.61226 17.565513 18.463042
212 2 8.139105 17.924082 18.073083
213 5 7.395109 17.248311 17.953374
214 2 36.359528 12.402912 17.66518
215 2 34.955635 11.619741 17.831392
216 5 35.381247 12.527402 17.691628
217 2 21.909277 51.44427 17.343757
218 2 22.52769 50.291725 18.29302
219 5 22.230368 51.258624 18.257905
220 2 12.344283 26.075685 16.919317
221 2 12.490069 25.561929 18.444668
222 5 12.992432 25.744084 17.585029
223 2 5.761357 47.875177 17.351
224 2 6.565242 47.50114 15.999793
225 5 6.163884 47.126592 16.850177
226 2 24.070456 28.962178 17.40616
227 2 23.931442 28.733027 18.999917
228 5 24.174079 28.291386 18.122074
229 2 10.450365 2.374083 16.006212
230 2 9.932055 2.016634 17.494661
231 5 10.553526 1.732079 16.748115
232 2 24.039897 53.589457 16.744247
233 2 23.00412 53.756768 17.973502
234 5 23.260095 53.176057 17.184973
235 2 14.210421 19.85758 17.842099
236 2 13.909426 19.438915 16.310427
237 5 14.478943 19.238167 17.122756
238 2 8.896222 43.977492 16.020953
239 2 7.994275 44.892729 17.00112
240 5 8.105709 44.566997 16.049275
241 2 8.000893 56.813466 17.911124
242 2 7.830694 57.672931 16.553093
243 5 8.142778 57.705937 17.515404
244 2 36.738323 24.820637 16.006844
245 2 36.622099 25.219752 17.568604
246 5 36.134845 25.213026 16.681437
247 2 21.442329 29.159725 15.999547
248 2 21.293641 29.408744 17.589446
249 5 21.646081 29.797647 16.723959
250 2 9.293824 26.032222 19.393458
251 2 8.64976 26.402609 17.958226
252 5 9.163185 26.768565 18.750058
253 2 20.740541 5.564568 16.758301
254 2 20.074135 4.302426 16.000149
255 5 20.545933 4.601262 16.844323
256 2 35.139381 22.249204 17.546188
257 2 35.06461 22.708952 15.99863
258 5 35.486818 22.905975 16.897211
259 2 34.583252 49.013079 18.281104
260 2 34.207867 49.483576 16.781232
261 5 34.947356 49.442816 17.471175
262 2 22.132622 8.561137 18.721439
263 2 21.721829 8.856796 17.1866
264 5 21.424071 8.419856 18.049705
265 2 10.860661 40.955575 16.994474
266 2 11.939318 40.050179 16.201599
267 5 11.26037 40.794896 16.10698
268 2 11.867552 22.907099 18.666905
269 2 10.559537 22.12957 19.21137
270 5 11.571351 22.151615 19.227922
271 2 7.685277 49.168995 17.427551
272 2 8.029857 48.694224 18.933457
273 5 8.419656 49.071873 18.079077
274 2 35.249589 31.536531 16.532045
275 2 33.948032 31.75506 17.464832
276 5 34.797627 31.217247 17.348757
277 2 13.841144 58.906075 17.47267
278 2 13.189445 59.041797 15.999998
279 5 13.355979 59.52288 16.874842
280 2 34.645204 4.709084 16.190664
281 2 34.289581 4.813838 17.763704
282 5 34.680948 4.217724 17.045368
283 2 20.86521 38.975211 17.109163
284 2 19.289374 38.80655 16.792635
285 5 20.213614 38.838447 16.381187
286 2 10.709173 45.607788 16.018611
287 2 11.31924 46.951233 16.678059
288 5 10.588279 46.255114 16.753176
289 2 20.576675 35.727762 17.557762
290 2 20.605313 34.130284 17.800948
291 5 20.118799 34.989197 18.024777
292 2 33.954443 14.782576 18.472718
293 2 34.999091 15.985312 18.200631
294 5 34.36258 15.331813 17.762088
295 2 22.888719 11.099564 18.551663
296 2 22.420895 11.149176 17.005515
297 5 22.141795 10.888255 17.942825
298 2 21.285073 45.738579 17.525008
299 2 21.935769 45.988377 16.066896
300 5 21.627048 46.438266 16.919433
301 1 3.140421 4.371887 28.679223
302 1 3.140421 4.371887 41.460207
303 1 3.140421 4.371887 54.24119
304 1 3.375379 3.973352 22.174657
305 1 3.375379 3.973352 34.955641
306 1 3.375379 3.973352 47.736624
307 1 9.404926 4.222199 28.280351
308 1 9.404926 4.222199 41.061335
309 1 9.404926 4.222199 53.841542
310 1 9.787315 4.072512 21.736984
311 1 9.787315 4.072512 34.517968
312 1 9.787315 4.072512 47.298175
313 1 2.705127 9.994328 27.858198
314 1 2.705127 9.994328 40.639182
315 1 2.705127 9.994328 53.419389
316 1 3.064177 10.384652 21.754833
317 1 3.064177 10.384652 34.53504
318 1 3.064177 10.384652 47.316024
319 1 10.071288 10.269702 28.304408
320 1 10.071288 10.269702 41.085391
321 1 10.071288 10.269702 53.865599
322 1 9.860448 10.568446 21.646966
323 1 9.860448 10.568446 34.42795
324 1 9.860448 10.568446 47.208933
325 4 2.199034 4.038406 27.802325
326 4 2.199034 4.038406 40.583309
327 4 2.199034 4.038406 53.363516
328 4 4.314432 3.813559 28.749065
329 4 4.314432 3.813559 41.530048
330 4 4.314432 3.813559 54.311032
331 4 3.293299 4.146408 20.880263
332 4 3.293299 4.146408 33.661246
333 4 3.293299 4.146408 46.44223
334 4 2.493509 4.54747 23.025171
335 4 2.493509 4.54747 35.806154
336 4 2.493509 4.54747 48.586362
337 4 10.262677 4.887898 29.00903
338 4 10.262677 4.887898 41.789238
339 4 10.262677 4.887898 54.570221
340 4 9.700568 3.620923 27.14504
341 4 9.700568 3.620923 39.925247
342 4 9.700568 3.620923 52.706231
343 4 10.201993 5.322434 21.586437
344 4 10.201993 5.322434 34.366645
345 4 10.201993 5.322434 47.147628
346 4 8.568569 3.723872 21.465379
347 4 8.568569 3.723872 34.245586
348 4 8.568569 3.723872 47.02657
349 4 3.499471 9.753691 28.838307
350 4 3.499471 9.753691 41.618514
351 4 3.499471 9.753691 54.399498
352 4 2.718353 11.072457 27.117103
353 4 2.718353 11.072457 39.898087
354 4 2.718353 11.072457 52.678294
355 4 2.706683 10.620868 22.99025
356 4 2.706683 10.620868 35.770458
357 4 2.706683 10.620868 48.551441
358 4 3.523978 11.305515 20.911303
359 4 3.523978 11.305515 33.692287
360 4 3.523978 11.305515 46.47327
361 4 8.960684 9.751796 28.651287
362 4 8.960684 9.751796 41.43227
363 4 8.960684 9.751796 54.213254
364 4 11.114594 10.528024 29.082752
365 4 11.114594 10.528024 41.862959
366 4 11.114594 10.528024 54.643943
367 4 11.156606 10.484444 21.657831
368 4 11.156606 10.484444 34.438814
369 4 11.156606 10.484444 47.219798
370 4 9.025648 10.202122 22.605346
371 4 9.025648 10.202122 35.38633
372 4 9.025648 10.202122 48.167313
373 2 2.400538 3.288073 27.129519
374 2 2.400538 3.288073 39.910503
375 2 2.400538 3.288073 52.69071
376 2 4.470033 2.883222 28.319928
377 2 4.470033 2.883222 41.100911
378 2 4.470033 2.883222 53.881119
379 2 2.971205 5.249169 29.268219
380 2 2.971205 5.249169 42.048427
381 2 2.971205 5.249169 54.82941
382 2 1.366179 4.54368 27.831038
383 2 1.366179 4.54368 40.612021
384 2 1.366179 4.54368 53.393005
385 2 5.111499 4.287885 29.305468
386 2 5.111499 4.287885 42.086452
387 2 5.111499 4.287885 54.867435
388 2 2.484951 4.664314 20.516311
389 2 2.484951 4.664314 33.297295
390 2 2.484951 4.664314 46.078278
391 2 1.994807 5.290855 22.586722
392 2 1.994807 5.290855 35.367705
393 2 1.994807 5.290855 48.147913
394 2 4.124599 3.409339 22.60457
395 2 4.124599 3.409339 35.385554
396 2 4.124599 3.409339 48.165761
397 2 3.76516 3.533763 20.235393
398 2 3.76516 3.533763 33.016377
399 2 3.76516 3.533763 45.79736
400 2 2.865007 4.79758 23.916813
401 2 2.865007 4.79758 36.697021
402 2 2.865007 4.79758 49.478004
403 2 10.679688 3.739031 26.793504
404 2 10.679688 3.739031 39.574488
405 2 10.679688 3.739031 52.354695
406 2 9.11434 2.911012 26.749272
407 2 9.11434 2.911012 39.530255
408 2 9.11434 2.911012 52.310463
409 2 8.399353 4.118618 28.698624
410 2 8.399353 4.118618 41.479607
411 2 8.399353 4.118618 54.260591
412 2 11.234018 4.964321 28.786314
413 2 11.234018 4.964321 41.567297
414 2 11.234018 4.964321 54.347505
415 2 9.923078 5.276328 29.899896
416 2 9.923078 5.276328 42.680104
417 2 9.923078 5.276328 55.461088
418 2 9.640272 6.132768 21.482451
419 2 9.640272 6.132768 34.262658
420 2 9.640272 6.132768 47.043642
421 2 8.209908 2.871853 21.866579
422 2 8.209908 2.871853 34.646786
423 2 8.209908 2.871853 47.42777
424 2 10.506971 3.2906 21.999278
425 2 10.506971 3.2906 34.779485
426 2 10.506971 3.2906 47.560469
427 2 7.802233 4.351044 21.250422
428 2 7.802233 4.351044 34.03063
429 2 7.802233 4.351044 46.811613
430 2 11.104869 5.537807 21.9403
431 2 11.104869 5.537807 34.721284
432 2 11.104869 5.537807 47.501491
433 2 3.404165 8.84167 29.210794
434 2 3.404165 8.84167 41.991002
435 2 3.404165 8.84167 54.771985
436 2 4.321823 10.188858 29.095944
437 2 4.321823 10.188858 41.876927
438 2 4.321823 10.188858 54.657911
439 2 3.387049 11.825947 27.152024
440 2 3.387049 11.825947 39.933007
441 2 3.387049 11.825947 52.713991
442 2 1.914673 9.305891 27.789909
443 2 1.914673 9.305891 40.570116
444 2 1.914673 9.305891 53.3511
445 2 1.923231 11.01814 26.430329
446 2 1.923231 11.01814 39.211312
447 2 1.923231 11.01814 51.992296
448 2 2.268276 9.85664 23.408523
449 2 2.268276 9.85664 36.189506
450 2 2.268276 9.85664 48.97049
451 2 2.681787 11.583416 23.402315
452 2 2.681787 11.583416 36.182522
453 2 2.681787 11.583416 48.963506
454 2 3.648459 12.256062 21.300863
455 2 3.648459 12.256062 34.081847
456 2 3.648459 12.256062 46.86283
457 2 2.91441 9.41263 21.282239
458 2 2.91441 9.41263 34.062446
459 2 2.91441 9.41263 46.84343
460 2 3.82351 11.021298 20.00026
461 2 3.82351 11.021298 32.780468
462 2 3.82351 11.021298 45.561451
463 2 11.758783 11.25625 28.716472
464 2 11.758783 11.25625 41.497456
465 2 11.758783 11.25625 54.278439
466 2 11.211844 10.230543 30.079156
467 2 11.211844 10.230543 42.86014
468 2 11.211844 10.230543 55.641123
469 2 8.239084 9.575581 27.95132
470 2 8.239084 9.575581 40.731528
471 2 8.239084 9.575581 53.512511
472 2 8.770073 9.470737 29.688044
473 2 8.770073 9.470737 42.469028
474 2 8.770073 9.470737 55.250011
475 2 10.217553 10.516655 27.270754
476 2 10.217553 10.516655 40.051738
477 2 10.217553 10.516655 52.831945
478 2 11.669701 10.999824 20.84379
479 2 11.669701 10.999824 33.624773
480 2 11.669701 10.999824 46.405757
481 2 8.132108 10.581709 22.669755
482 2 8.132108 10.581709 35.450739
483 2 8.132108 10.581709 48.231722
484 2 11.786402 10.099172 22.372541
485 2 11.786402 10.099172 35.153525
486 2 11.786402 10.099172 47.934508
487 2 9.360579 9.52758 23.292896
488 2 9.360579 9.52758 36.07388
489 2 9.360579 9.52758 48.854087
490 2 9.376917 10.977086 20.728939
491 2 9.376917 10.977086 33.509923
492 2 9.376917 10.977086 46.290906
493 6 6.273062 0.973916 31.317678
494 6 6.273062 0.973916 44.098661
495 6 6.273062 0.973916 56.878869
496 6 6.564037 0.815387 25.020308
497 6 6.564037 0.815387 37.801291
498 6 6.564037 0.815387 50.582275
499 6 12.891559 1.214553 31.590835
500 6 12.891559 1.214553 44.371819
501 6 12.891559 1.214553 57.152802
502 6 12.705616 1.400242 24.837944
503 6 12.705616 1.400242 37.618928
504 6 12.705616 1.400242 50.399911
505 6 0.303811 7.514694 25.23216
506 6 0.303811 7.514694 38.013144
507 6 0.303811 7.514694 50.794127
508 6 0.018283 7.40227 31.638948
509 6 0.018283 7.40227 44.419932
510 6 0.018283 7.40227 57.200915
511 6 6.752314 7.010051 25.178615
512 6 6.752314 7.010051 37.959599
513 6 6.752314 7.010051 50.740582
514 6 6.655452 7.3189 31.562123
515 6 6.655452 7.3189 44.343106
516 6 6.655452 7.3189 57.12409
517 3 3.027999 1.488665 31.4496
518 3 3.027999 1.488665 44.229808
519 3 3.027999 1.488665 57.010791
520 3 6.046274 0.84065 28.388993
521 3 6.046274 0.84065 41.169977
522 3 6.046274 0.84065 53.95096
523 3 6.522024 3.924719 25.023412
524 3 6.522024 3.924719 37.804395
525 3 6.522024 3.924719 50.585379
526 3 3.02372 1.278976 25.031948
527 3 3.02372 1.278976 37.812156
528 3 3.02372 1.278976 50.593139
529 3 6.248166 1.152026 21.872787
530 3 6.248166 1.152026 34.652994
531 3 6.248166 1.152026 47.433978
532 3 12.714563 1.22908 27.942784
533 3 12.714563 1.22908 40.722992
534 3 12.714563 1.22908 53.503975
535 3 6.714581 4.019458 31.453481
536 3 6.714581 4.019458 44.234464
537 3 6.714581 4.019458 57.014672
538 3 9.756584 0.730753 31.101945
539 3 9.756584 0.730753 43.882929
540 3 9.756584 0.730753 56.663912
541 3 12.352401 0.993496 21.799065
542 3 12.352401 0.993496 34.580049
543 3 12.352401 0.993496 47.360256
544 3 12.597473 4.344097 25.13283
545 3 12.597473 4.344097 37.913814
546 3 12.597473 4.344097 50.694797
547 3 12.856938 4.239884 32.040149
548 3 12.856938 4.239884 44.821132
549 3 12.856938 4.239884 57.60134
550 3 9.624712 0.960021 24.920978
551 3 9.624712 0.960021 37.701185
552 3 9.624712 0.960021 50.482169
553 3 3.327921 6.557199 25.951527
554 3 3.327921 6.557199 38.732511
555 3 3.327921 6.557199 51.513494
556 3 0.118646 7.117422 28.488323
557 3 0.118646 7.117422 41.269307
558 3 0.118646 7.117422 54.049514
559 3 6.374203 6.888785 28.545749
560 3 6.374203 6.888785 41.326732
561 3 6.374203 6.888785 54.10694
562 3 0.406508 10.531182 31.879513
563 3 0.406508 10.531182 44.659721
564 3 0.406508 10.531182 57.440704
565 3 3.249342 6.943102 31.680077
566 3 3.249342 6.943102 44.461061
567 3 3.249342 6.943102 57.242044
568 3 6.391708 7.275951 22.093176
569 3 6.391708 7.275951 34.874159
570 3 6.391708 7.275951 47.655143
571 3 0.467582 7.443324 22.078431
572 3 0.467582 7.443324 34.858639
573 3 0.467582 7.443324 47.639622
574 3 6.559758 10.129489 25.381155
575 3 6.559758 10.129489 38.162139
576 3 6.559758 10.129489 50.943122
577 3 6.634446 10.228017 31.015031
578 3 6.634446 10.228017 43.796015
579 3 6.634446 10.228017 56.576222
580 3 10.05884 7.396586 24.650148
581 3 10.05884 7.396586 37.431132
582 3 10.05884 7.396586 50.212115
583 3 12.703282 10.416863 25.102566
584 3 12.703282 10.416863 37.883549
585 3 12.703282 10.416863 50.664533
586 3 9.707959 7.543747 31.704134
587 3 9.707959 7.543747 44.484341
588 3 9.707959 7.543747 57.265325
589 1 16.107058 4.371887 28.679223
590 1 16.107058 4.371887 41.460207
591 1 16.107058 4.371887 54.24119
592 1 16.342016 3.973352 22.174657
593 1 16.342016 3.973352 34.955641
594 1 16.342016 3.973352 47.736624
595 1 22.371952 4.222199 28.280351
596 1 22.371952 4.222199 41.061335
597 1 22.371952 4.222199 53.841542
598 1 22.753952 4.072512 21.736984
599 1 22.753952 4.072512 34.517968
600 1 22.753952 4.072512 47.298175
601 1 15.671764 9.994328 27.858198
602 1 15.671764 9.994328 40.639182
603 1 15.671764 9.994328 53.419389
604 1 16.030814 10.384652 21.754833
605 1 16.030814 10.384652 34.53504
606 1 16.030814 10.384652 47.316024
607 1 23.038314 10.269702 28.304408
608 1 23.038314 10.269702 41.085391
609 1 23.038314 10.269702 53.865599
610 1 22.827085 10.568446 21.646966
611 1 22.827085 10.568446 34.42795
612 1 22.827085 10.568446 47.208933
613 4 15.165671 4.038406 27.802325
614 4 15.165671 4.038406 40.583309
615 4 15.165671 4.038406 53.363516
616 4 17.281069 3.813559 28.749065
617 4 17.281069 3.813559 41.530048
618 4 17.281069 3.813559 54.311032
619 4 16.259936 4.146408 20.880263
620 4 16.259936 4.146408 33.661246
621 4 16.259936 4.146408 46.44223
622 4 15.460146 4.54747 23.025171
623 4 15.460146 4.54747 35.806154
624 4 15.460146 4.54747 48.586362
625 4 23.229314 4.887898 29.00903
626 4 23.229314 4.887898 41.789238
627 4 23.229314 4.887898 54.570221
628 4 22.667205 3.620923 27.14504
629 4 22.667205 3.620923 39.925247
630 4 22.667205 3.620923 52.706231
631 4 23.16863 5.322434 21.586437
632 4 23.16863 5.322434 34.366645
633 4 23.16863 5.322434 47.147628
634 4 21.535595 3.723872 21.465379
635 4 21.535595 3.723872 34.245586
636 4 21.535595 3.723872 47.02657
637 4 16.466108 9.753691 28.838307
638 4 16.466108 9.753691 41.618514
639 4 16.466108 9.753691 54.399498
640 4 15.685379 11.072457 27.117103
641 4 15.685379 11.072457 39.898087
642 4 15.685379 11.072457 52.678294
643 4 15.67332 10.620868 22.99025
644 4 15.67332 10.620868 35.770458
645 4 15.67332 10.620868 48.551441
646 4 16.491004 11.305515 20.911303
647 4 16.491004 11.305515 33.692287
648 4 16.491004 11.305515 46.47327
649 4 21.92771 9.751796 28.651287
650 4 21.92771 9.751796 41.43227
651 4 21.92771 9.751796 54.213254
652 4 24.081231 10.528024 29.082752
653 4 24.081231 10.528024 41.862959
654 4 24.081231 10.528024 54.643943
655 4 24.123632 10.484444 21.657831
656 4 24.123632 10.484444 34.438814
657 4 24.123632 10.484444 47.219798
658 4 21.992285 10.202122 22.605346
659 4 21.992285 10.202122 35.38633
660 4 21.992285 10.202122 48.167313
661 2 15.367175 3.288073 27.129519
662 2 15.367175 3.288073 39.910503
663 2 15.367175 3.288073 52.69071
664 2 17.43667 2.883222 28.319928
665 2 17.43667 2.883222 41.100911
666 2 17.43667 2.883222 53.881119
667 2 15.937842 5.249169 29.268219
668 2 15.937842 5.249169 42.048427
669 2 15.937842 5.249169 54.82941
670 2 14.332816 4.54368 27.831038
671 2 14.332816 4.54368 40.612021
672 2 14.332816 4.54368 53.393005
673 2 18.078136 4.287885 29.305468
674 2 18.078136 4.287885 42.086452
675 2 18.078136 4.287885 54.867435
676 2 15.451588 4.664314 20.516311
677 2 15.451588 4.664314 33.297295
678 2 15.451588 4.664314 46.078278
679 2 14.961444 5.290855 22.586722
680 2 14.961444 5.290855 35.367705
681 2 14.961444 5.290855 48.147913
682 2 17.091625 3.409339 22.60457
683 2 17.091625 3.409339 35.385554
684 2 17.091625 3.409339 48.165761
685 2 16.731797 3.533763 20.235393
686 2 16.731797 3.533763 33.016377
687 2 16.731797 3.533763 45.79736
688 2 15.832033 4.79758 23.916813
689 2 15.832033 4.79758 36.697021
690 2 15.832033 4.79758 49.478004
691 2 23.646714 3.739031 26.793504
692 2 23.646714 3.739031 39.574488
693 2 23.646714 3.739031 52.354695
694 2 22.081366 2.911012 26.749272
695 2 22.081366 2.911012 39.530255
696 2 22.081366 2.911012 52.310463
697 2 21.36599 4.118618 28.698624
698 2 21.36599 4.118618 41.479607
699 2 21.36599 4.118618 54.260591
700 2 24.200655 4.964321 28.786314
701 2 24.200655 4.964321 41.567297
702 2 24.200655 4.964321 54.347505
703 2 22.890104 5.276328 29.899896
704 2 22.890104 5.276328 42.680104
705 2 22.890104 5.276328 55.461088
706 2 22.607298 6.132768 21.482451
707 2 22.607298 6.132768 34.262658
708 2 22.607298 6.132768 47.043642
709 2 21.176545 2.871853 21.866579
710 2 21.176545 2.871853 34.646786
711 2 21.176545 2.871853 47.42777
712 2 23.473997 3.2906 21.999278
713 2 23.473997 3.2906 34.779485
714 2 23.473997 3.2906 47.560469
715 2 20.769259 4.351044 21.250422
716 2 20.769259 4.351044 34.03063
717 2 20.769259 4.351044 46.811613
718 2 24.071506 5.537807 21.9403
719 2 24.071506 5.537807 34.721284
720 2 24.071506 5.537807 47.501491
721 2 16.370802 8.84167 29.210794
722 2 16.370802 8.84167 41.991002
723 2 16.370802 8.84167 54.771985
724 2 17.28846 10.188858 29.095944
725 2 17.28846 10.188858 41.876927
726 2 17.28846 10.188858 54.657911
727 2 16.353686 11.825947 27.152024
728 2 16.353686 11.825947 39.933007
729 2 16.353686 11.825947 52.713991
730 2 14.881699 9.305891 27.789909
731 2 14.881699 9.305891 40.570116
732 2 14.881699 9.305891 53.3511
733 2 14.889868 11.01814 26.430329
734 2 14.889868 11.01814 39.211312
735 2 14.889868 11.01814 51.992296
736 2 15.234913 9.85664 23.408523
737 2 15.234913 9.85664 36.189506
738 2 15.234913 9.85664 48.97049
739 2 15.648813 11.583416 23.402315
740 2 15.648813 11.583416 36.182522
741 2 15.648813 11.583416 48.963506
742 2 16.615096 12.256062 21.300863
743 2 16.615096 12.256062 34.081847
744 2 16.615096 12.256062 46.86283
745 2 15.881436 9.41263 21.282239
746 2 15.881436 9.41263 34.062446
747 2 15.881436 9.41263 46.84343
748 2 16.790536 11.021298 20.00026
749 2 16.790536 11.021298 32.780468
750 2 16.790536 11.021298 45.561451
751 2 24.725809 11.25625 28.716472
752 2 24.725809 11.25625 41.497456
753 2 24.725809 11.25625 54.278439
754 2 24.17887 10.230543 30.079156
755 2 24.17887 10.230543 42.86014
756 2 24.17887 10.230543 55.641123
757 2 21.205721 9.575581 27.95132
758 2 21.205721 9.575581 40.731528
759 2 21.205721 9.575581 53.512511
760 2 21.737099 9.470737 29.688044
761 2 21.737099 9.470737 42.469028
762 2 21.737099 9.470737 55.250011
763 2 23.18419 10.516655 27.270754
764 2 23.18419 10.516655 40.051738
765 2 23.18419 10.516655 52.831945
766 2 24.636727 10.999824 20.84379
767 2 24.636727 10.999824 33.624773
768 2 24.636727 10.999824 46.405757
769 2 21.099134 10.581709 22.669755
770 2 21.099134 10.581709 35.450739
771 2 21.099134 10.581709 48.231722
772 2 24.753428 10.099172 22.372541
773 2 24.753428 10.099172 35.153525
774 2 24.753428 10.099172 47.934508
775 2 22.327605 9.52758 23.292896
776 2 22.327605 9.52758 36.07388
777 2 22.327605 9.52758 48.854087
778 2 22.343554 10.977086 20.728939
779 2 22.343554 10.977086 33.509923
780 2 22.343554 10.977086 46.290906
781 6 19.239699 0.973916 31.317678
782 6 19.239699 0.973916 44.098661
783 6 19.239699 0.973916 56.878869
784 6 19.531063 0.815387 25.020308
785 6 19.531063 0.815387 37.801291
786 6 19.531063 0.815387 50.582275
787 6 25.858196 1.214553 31.590835
788 6 25.858196 1.214553 44.371819
789 6 25.858196 1.214553 57.152802
790 6 25.672642 1.400242 24.837944
791 6 25.672642 1.400242 37.618928
792 6 25.672642 1.400242 50.399911
793 6 13.270448 7.514694 25.23216
794 6 13.270448 7.514694 38.013144
795 6 13.270448 7.514694 50.794127
796 6 12.98492 7.40227 31.638948
797 6 12.98492 7.40227 44.419932
798 6 12.98492 7.40227 57.200915
799 6 19.718951 7.010051 25.178615
800 6 19.718951 7.010051 37.959599
801 6 19.718951 7.010051 50.740582
802 6 19.622478 7.3189 31.562123
803 6 19.622478 7.3189 44.343106
804 6 19.622478 7.3189 57.12409
805 3 15.994636 1.488665 31.4496
806 3 15.994636 1.488665 44.229808
807 3 15.994636 1.488665 57.010791
808 3 19.012911 0.84065 28.388993
809 3 19.012911 0.84065 41.169977
810 3 19.012911 0.84065 53.95096
811 3 19.488661 3.924719 25.023412
812 3 19.488661 3.924719 37.804395
813 3 19.488661 3.924719 50.585379
814 3 15.990357 1.278976 25.031948
815 3 15.990357 1.278976 37.812156
816 3 15.990357 1.278976 50.593139
817 3 19.215192 1.152026 21.872787
818 3 19.215192 1.152026 34.652994
819 3 19.215192 1.152026 47.433978
820 3 25.6812 1.22908 27.942784
821 3 25.6812 1.22908 40.722992
822 3 25.6812 1.22908 53.503975
823 3 19.681218 4.019458 31.453481
824 3 19.681218 4.019458 44.234464
825 3 19.681218 4.019458 57.014672
826 3 22.72361 0.730753 31.101945
827 3 22.72361 0.730753 43.882929
828 3 22.72361 0.730753 56.663912
829 3 25.319038 0.993496 21.799065
830 3 25.319038 0.993496 34.580049
831 3 25.319038 0.993496 47.360256
832 3 25.56411 4.344097 25.13283
833 3 25.56411 4.344097 37.913814
834 3 25.56411 4.344097 50.694797
835 3 25.823964 4.239884 32.040149
836 3 25.823964 4.239884 44.821132
837 3 25.823964 4.239884 57.60134
838 3 22.591349 0.960021 24.920978
839 3 22.591349 0.960021 37.701185
840 3 22.591349 0.960021 50.482169
841 3 16.294558 6.557199 25.951527
842 3 16.294558 6.557199 38.732511
843 3 16.294558 6.557199 51.513494
844 3 13.085283 7.117422 28.488323
845 3 13.085283 7.117422 41.269307
846 3 13.085283 7.117422 54.049514
847 3 19.34084 6.888785 28.545749
848 3 19.34084 6.888785 41.326732
849 3 19.34084 6.888785 54.10694
850 3 13.373145 10.531182 31.879513
851 3 13.373145 10.531182 44.659721
852 3 13.373145 10.531182 57.440704
853 3 16.215979 6.943102 31.680077
854 3 16.215979 6.943102 44.461061
855 3 16.215979 6.943102 57.242044
856 3 19.358345 7.275951 22.093176
857 3 19.358345 7.275951 34.874159
858 3 19.358345 7.275951 47.655143
859 3 13.434608 7.443324 22.078431
860 3 13.434608 7.443324 34.858639
861 3 13.434608 7.443324 47.639622
862 3 19.526784 10.129489 25.381155
863 3 19.526784 10.129489 38.162139
864 3 19.526784 10.129489 50.943122
865 3 19.601472 10.228017 31.015031
866 3 19.601472 10.228017 43.796015
867 3 19.601472 10.228017 56.576222
868 3 23.025477 7.396586 24.650148
869 3 23.025477 7.396586 37.431132
870 3 23.025477 7.396586 50.212115
871 3 25.670308 10.416863 25.102566
872 3 25.670308 10.416863 37.883549
873 3 25.670308 10.416863 50.664533
874 3 22.674596 7.543747 31.704134
875 3 22.674596 7.543747 44.484341
876 3 22.674596 7.543747 57.265325
877 1 29.074084 4.371887 28.679223
878 1 29.074084 4.371887 41.460207
879 1 29.074084 4.371887 54.24119
880 1 29.308653 3.973352 22.174657
881 1 29.308653 3.973352 34.955641
882 1 29.308653 3.973352 47.736624
883 1 35.338589 4.222199 28.280351
884 1 35.338589 4.222199 41.061335
885 1 35.338589 4.222199 53.841542
886 1 35.720978 4.072512 21.736984
887 1 35.720978 4.072512 34.517968
888 1 35.720978 4.072512 47.298175
889 1 28.63879 9.994328 27.858198
890 1 28.63879 9.994328 40.639182
891 1 28.63879 9.994328 53.419389
892 1 28.99784 10.384652 21.754833
893 1 28.99784 10.384652 34.53504
894 1 28.99784 10.384652 47.316024
895 1 36.004951 10.269702 28.304408
896 1 36.004951 10.269702 41.085391
897 1 36.004951 10.269702 53.865599
898 1 35.793722 10.568446 21.646966
899 1 35.793722 10.568446 34.42795
900 1 35.793722 10.568446 47.208933
901 4 28.132697 4.038406 27.802325
902 4 28.132697 4.038406 40.583309
903 4 28.132697 4.038406 53.363516
904 4 30.247706 3.813559 28.749065
905 4 30.247706 3.813559 41.530048
906 4 30.247706 3.813559 54.311032
907 4 29.226573 4.146408 20.880263
908 4 29.226573 4.146408 33.661246
909 4 29.226573 4.146408 46.44223
910 4 28.426783 4.54747 23.025171
911 4 28.426783 4.54747 35.806154
912 4 28.426783 4.54747 48.586362
913 4 36.195951 4.887898 29.00903
914 4 36.195951 4.887898 41.789238
915 4 36.195951 4.887898 54.570221
916 4 35.633842 3.620923 27.14504
917 4 35.633842 3.620923 39.925247
918 4 35.633842 3.620923 52.706231
919 4 36.135267 5.322434 21.586437
920 4 36.135267 5.322434 34.366645
921 4 36.135267 5.322434 47.147628
922 4 34.502232 3.723872 21.465379
923 4 34.502232 3.723872 34.245586
924 4 34.502232 3.723872 47.02657
925 4 29.432745 9.753691 28.838307
926 4 29.432745 9.753691 41.618514
927 4 29.432745 9.753691 54.399498
928 4 28.652016 11.072457 27.117103
929 4 28.652016 11.072457 39.898087
930 4 28.652016 11.072457 52.678294
931 4 28.639957 10.620868 22.99025
932 4 28.639957 10.620868 35.770458
933 4 28.639957 10.620868 48.551441
934 4 29.457641 11.305515 20.911303
935 4 29.457641 11.305515 33.692287
936 4 29.457641 11.305515 46.47327
937 4 34.894347 9.751796 28.651287
938 4 34.894347 9.751796 41.43227
939 4 34.894347 9.751796 54.213254
940 4 37.048257 10.528024 29.082752
941 4 37.048257 10.528024 41.862959
942 4 37.048257 10.528024 54.643943
943 4 37.090269 10.484444 21.657831
944 4 37.090269 10.484444 34.438814
945 4 37.090269 10.484444 47.219798
946 4 34.959311 10.202122 22.605346
947 4 34.959311 10.202122 35.38633
948 4 34.959311 10.202122 48.167313
949 2 28.333812 3.288073 27.129519
950 2 28.333812 3.288073 39.910503
951 2 28.333812 3.288073 52.69071
952 2 30.403696 2.883222 28.319928
953 2 30.403696 2.883222 41.100911
954 2 30.403696 2.883222 53.881119
955 2 28.904868 5.249169 29.268219
956 2 28.904868 5.249169 42.048427
957 2 28.904868 5.249169 54.82941
958 2 27.299453 4.54368 27.831038
959 2 27.299453 4.54368 40.612021
960 2 27.299453 4.54368 53.393005
961 2 31.044773 4.287885 29.305468
962 2 31.044773 4.287885 42.086452
963 2 31.044773 4.287885 54.867435
964 2 28.418225 4.664314 20.516311
965 2 28.418225 4.664314 33.297295
966 2 28.418225 4.664314 46.078278
967 2 27.928081 5.290855 22.586722
968 2 27.928081 5.290855 35.367705
969 2 27.928081 5.290855 48.147913
970 2 30.058262 3.409339 22.60457
971 2 30.058262 3.409339 35.385554
972 2 30.058262 3.409339 48.165761
973 2 29.698823 3.533763 20.235393
974 2 29.698823 3.533763 33.016377
975 2 29.698823 3.533763 45.79736
976 2 28.79867 4.79758 23.916813
977 2 28.79867 4.79758 36.697021
978 2 28.79867 4.79758 49.478004
979 2 36.613351 3.739031 26.793504
980 2 36.613351 3.739031 39.574488
981 2 36.613351 3.739031 52.354695
982 2 35.048003 2.911012 26.749272
983 2 35.048003 2.911012 39.530255
984 2 35.048003 2.911012 52.310463
985 2 34.333016 4.118618 28.698624
986 2 34.333016 4.118618 41.479607
987 2 34.333016 4.118618 54.260591
988 2 37.167681 4.964321 28.786314
989 2 37.167681 4.964321 41.567297
990 2 37.167681 4.964321 54.347505
991 2 35.856741 5.276328 29.899896
992 2 35.856741 5.276328 42.680104
993 2 35.856741 5.276328 55.461088
994 2 35.573935 6.132768 21.482451
995 2 35.573935 6.132768 34.262658
996 2 35.573935 6.132768 47.043642
997 2 34.143182 2.871853 21.866579
998 2 34.143182 2.871853 34.646786
999 2 34.143182 2.871853 47.42777
1000 2 36.440634 3.2906 21.999278
1001 2 36.440634 3.2906 34.779485
1002 2 36.440634 3.2906 47.560469
1003 2 33.735896 4.351044 21.250422
1004 2 33.735896 4.351044 34.03063
1005 2 33.735896 4.351044 46.811613
1006 2 37.038143 5.537807 21.9403
1007 2 37.038143 5.537807 34.721284
1008 2 37.038143 5.537807 47.501491
1009 2 29.337439 8.84167 29.210794
1010 2 29.337439 8.84167 41.991002
1011 2 29.337439 8.84167 54.771985
1012 2 30.255486 10.188858 29.095944
1013 2 30.255486 10.188858 41.876927
1014 2 30.255486 10.188858 54.657911
1015 2 29.320712 11.825947 27.152024
1016 2 29.320712 11.825947 39.933007
1017 2 29.320712 11.825947 52.713991
1018 2 27.848336 9.305891 27.789909
1019 2 27.848336 9.305891 40.570116
1020 2 27.848336 9.305891 53.3511
1021 2 27.856505 11.01814 26.430329
1022 2 27.856505 11.01814 39.211312
1023 2 27.856505 11.01814 51.992296
1024 2 28.20155 9.85664 23.408523
1025 2 28.20155 9.85664 36.189506
1026 2 28.20155 9.85664 48.97049
1027 2 28.61545 11.583416 23.402315
1028 2 28.61545 11.583416 36.182522
1029 2 28.61545 11.583416 48.963506
1030 2 29.581733 12.256062 21.300863
1031 2 29.581733 12.256062 34.081847
1032 2 29.581733 12.256062 46.86283
1033 2 28.848073 9.41263 21.282239
1034 2 28.848073 9.41263 34.062446
1035 2 28.848073 9.41263 46.84343
1036 2 29.757173 11.021298 20.00026
1037 2 29.757173 11.021298 32.780468
1038 2 29.757173 11.021298 45.561451
1039 2 37.692446 11.25625 28.716472
1040 2 37.692446 11.25625 41.497456
1041 2 37.692446 11.25625 54.278439
1042 2 37.145507 10.230543 30.079156
1043 2 37.145507 10.230543 42.86014
1044 2 37.145507 10.230543 55.641123
1045 2 34.172747 9.575581 27.95132
1046 2 34.172747 9.575581 40.731528
1047 2 34.172747 9.575581 53.512511
1048 2 34.703736 9.470737 29.688044
1049 2 34.703736 9.470737 42.469028
1050 2 34.703736 9.470737 55.250011
1051 2 36.150827 10.516655 27.270754
1052 2 36.150827 10.516655 40.051738
1053 2 36.150827 10.516655 52.831945
1054 2 37.603364 10.999824 20.84379
1055 2 37.603364 10.999824 33.624773
1056 2 37.603364 10.999824 46.405757
1057 2 34.065771 10.581709 22.669755
1058 2 34.065771 10.581709 35.450739
1059 2 34.065771 10.581709 48.231722
1060 2 37.720065 10.099172 22.372541
1061 2 37.720065 10.099172 35.153525
1062 2 37.720065 10.099172 47.934508
1063 2 35.294242 9.52758 23.292896
1064 2 35.294242 9.52758 36.07388
1065 2 35.294242 9.52758 48.854087
1066 2 35.310191 10.977086 20.728939
1067 2 35.310191 10.977086 33.509923
1068 2 35.310191 10.977086 46.290906
1069 6 32.206336 0.973916 31.317678
1070 6 32.206336 0.973916 44.098661
1071 6 32.206336 0.973916 56.878869
1072 6 32.4977 0.815387 25.020308
1073 6 32.4977 0.815387 37.801291
1074 6 32.4977 0.815387 50.582275
1075 6 38.824833 1.214553 31.590835
1076 6 38.824833 1.214553 44.371819
1077 6 38.824833 1.214553 57.152802
1078 6 38.639279 1.400242 24.837944
1079 6 38.639279 1.400242 37.618928
1080 6 38.639279 1.400242 50.399911
1081 6 26.237085 7.514694 25.23216
1082 6 26.237085 7.514694 38.013144
1083 6 26.237085 7.514694 50.794127
1084 6 25.951946 7.40227 31.638948
1085 6 25.951946 7.40227 44.419932
1086 6 25.951946 7.40227 57.200915
1087 6 32.685977 7.010051 25.178615
1088 6 32.685977 7.010051 37.959599
1089 6 32.685977 7.010051 50.740582
1090 6 32.589115 7.3189 31.562123
1091 6 32.589115 7.3189 44.343106
1092 6 32.589115 7.3189 57.12409
1093 3 28.961273 1.488665 31.4496
1094 3 28.961273 1.488665 44.229808
1095 3 28.961273 1.488665 57.010791
1096 3 31.979548 0.84065 28.388993
1097 3 31.979548 0.84065 41.169977
1098 3 31.979548 0.84065 53.95096
1099 3 32.455298 3.924719 25.023412
1100 3 32.455298 3.924719 37.804395
1101 3 32.455298 3.924719 50.585379
1102 3 28.956994 1.278976 25.031948
1103 3 28.956994 1.278976 37.812156
1104 3 28.956994 1.278976 50.593139
1105 3 32.181829 1.152026 21.872787
1106 3 32.181829 1.152026 34.652994
1107 3 32.181829 1.152026 47.433978
1108 3 38.648226 1.22908 27.942784
1109 3 38.648226 1.22908 40.722992
1110 3 38.648226 1.22908 53.503975
1111 3 32.647855 4.019458 31.453481
1112 3 32.647855 4.019458 44.234464
1113 3 32.647855 4.019458 57.014672
1114 3 35.690247 0.730753 31.101945
1115 3 35.690247 0.730753 43.882929
1116 3 35.690247 0.730753 56.663912
1117 3 38.285675 0.993496 21.799065
1118 3 38.285675 0.993496 34.580049
1119 3 38.285675 0.993496 47.360256
1120 3 38.530747 4.344097 25.13283
1121 3 38.530747 4.344097 37.913814
1122 3 38.530747 4.344097 50.694797
1123 3 38.790601 4.239884 32.040149
1124 3 38.790601 4.239884 44.821132
1125 3 38.790601 4.239884 57.60134
1126 3 35.557986 0.960021 24.920978
1127 3 35.557986 0.960021 37.701185
1128 3 35.557986 0.960021 50.482169
1129 3 29.261195 6.557199 25.951527
1130 3 29.261195 6.557199 38.732511
1131 3 29.261195 6.557199 51.513494
1132 3 26.05192 7.117422 28.488323
1133 3 26.05192 7.117422 41.269307
1134 3 26.05192 7.117422 54.049514
1135 3 32.307477 6.888785 28.545749
1136 3 32.307477 6.888785 41.326732
1137 3 32.307477 6.888785 54.10694
1138 3 26.339782 10.531182 31.879513
1139 3 26.339782 10.531182 44.659721
1140 3 26.339782 10.531182 57.440704
1141 3 29.182616 6.943102 31.680077
1142 3 29.182616 6.943102 44.461061
1143 3 29.182616 6.943102 57.242044
1144 3 32.325371 7.275951 22.093176
1145 3 32.325371 7.275951 34.874159
1146 3 32.325371 7.275951 47.655143
1147 3 26.401245 7.443324 22.078431
1148 3 26.401245 7.443324 34.858639
1149 3 26.401245 7.443324 47.639622
1150 3 32.493421 10.129489 25.381155
1151 3 32.493421 10.129489 38.162139
1152 3 32.493421 10.129489 50.943122
1153 3 32.568109 10.228017 31.015031
1154 3 32.568109 10.228017 43.796015
1155 3 32.568109 10.228017 56.576222
1156 3 35.992503 7.396586 24.650148
1157 3 35.992503 7.396586 37.431132
1158 3 35.992503 7.396586 50.212115
1159 3 38.636945 10.416863 25.102566
1160 3 38.636945 10.416863 37.883549
1161 3 38.636945 10.416863 50.664533
1162 3 35.641233 7.543747 31.704134
1163 3 35.641233 7.543747 44.484341
1164 3 35.641233 7.543747 57.265325
1165 1 3.140421 17.003747 28.679223
1166 1 3.140421 17.003747 41.460207
1167 1 3.140421 17.003747 54.24119
1168 1 3.375379 16.605212 22.174657
1169 1 3.375379 16.605212 34.955641
1170 1 3.375379 16.605212 47.736624
1171 1 9.404926 16.854059 28.280351
1172 1 9.404926 16.854059 41.061335
1173 1 9.404926 16.854059 53.841542
1174 1 9.787315 16.704372 21.736984
1175 1 9.787315 16.704372 34.517968
1176 1 9.787315 16.704372 47.298175
1177 1 2.705127 22.626188 27.858198
1178 1 2.705127 22.626188 40.639182
1179 1 2.705127 22.626188 53.419389
1180 1 3.064177 23.016512 21.754833
1181 1 3.064177 23.016512 34.53504
1182 1 3.064177 23.016512 47.316024
1183 1 10.071288 22.901562 28.304408
1184 1 10.071288 22.901562 41.085391
1185 1 10.071288 22.901562 53.865599
1186 1 9.860448 23.200306 21.646966
1187 1 9.860448 23.200306 34.42795
1188 1 9.860448 23.200306 47.208933
1189 4 2.199034 16.670266 27.802325
1190 4 2.199034 16.670266 40.583309
1191 4 2.199034 16.670266 53.363516
1192 4 4.314432 16.445419 28.749065
1193 4 4.314432 16.445419 41.530048
1194 4 4.314432 16.445419 54.311032
1195 4 3.293299 16.778268 20.880263
1196 4 3.293299 16.778268 33.661246
1197 4 3.293299 16.778268 46.44223
1198 4 2.493509 17.17933 23.025171
1199 4 2.493509 17.17933 35.806154
1200 4 2.493509 17.17933 48.586362
1201 4 10.262677 17.519758 29.00903
1202 4 10.262677 17.519758 41.789238
1203 4 10.262677 17.519758 54.570221
1204 4 9.700568 16.252783 27.14504
1205 4 9.700568 16.252783 39.925247
1206 4 9.700568 16.252783 52.706231
1207 4 10.201993 17.954294 21.586437
1208 4 10.201993 17.954294 34.366645
1209 4 10.201993 17.954294 47.147628
1210 4 8.568569 16.355732 21.465379
1211 4 8.568569 16.355732 34.245586
1212 4 8.568569 16.355732 47.02657
1213 4 3.499471 22.385551 28.838307
1214 4 3.499471 22.385551 41.618514
1215 4 3.499471 22.385551 54.399498
1216 4 2.718353 23.704317 27.117103
1217 4 2.718353 23.704317 39.898087
1218 4 2.718353 23.704317 52.678294
1219 4 2.706683 23.252728 22.99025
1220 4 2.706683 23.252728 35.770458
1221 4 2.706683 23.252728 48.551441
1222 4 3.523978 23.937375 20.911303
1223 4 3.523978 23.937375 33.692287
1224 4 3.523978 23.937375 46.47327
1225 4 8.960684 22.383656 28.651287
1226 4 8.960684 22.383656 41.43227
1227 4 8.960684 22.383656 54.213254
1228 4 11.114594 23.159884 29.082752
1229 4 11.114594 23.159884 41.862959
1230 4 11.114594 23.159884 54.643943
1231 4 11.156606 23.116304 21.657831
1232 4 11.156606 23.116304 34.438814
1233 4 11.156606 23.116304 47.219798
1234 4 9.025648 22.833982 22.605346
1235 4 9.025648 22.833982 35.38633
1236 4 9.025648 22.833982 48.167313
1237 2 2.400538 15.919933 27.129519
1238 2 2.400538 15.919933 39.910503
1239 2 2.400538 15.919933 52.69071
1240 2 4.470033 15.515082 28.319928
1241 2 4.470033 15.515082 41.100911
1242 2 4.470033 15.515082 53.881119
1243 2 2.971205 17.881029 29.268219
1244 2 2.971205 17.881029 42.048427
1245 2 2.971205 17.881029 54.82941
1246 2 1.366179 17.17554 27.831038
1247 2 1.366179 17.17554 40.612021
1248 2 1.366179 17.17554 53.393005
1249 2 5.111499 16.919745 29.305468
1250 2 5.111499 16.919745 42.086452
1251 2 5.111499 16.919745 54.867435
1252 2 2.484951 17.296174 20.516311
1253 2 2.484951 17.296174 33.297295
1254 2 2.484951 17.296174 46.078278
1255 2 1.994807 17.922715 22.586722
1256 2 1.994807 17.922715 35.367705
1257 2 1.994807 17.922715 48.147913
1258 2 4.124599 16.041199 22.60457
1259 2 4.124599 16.041199 35.385554
1260 2 4.124599 16.041199 48.165761
1261 2 3.76516 16.165623 20.235393
1262 2 3.76516 16.165623 33.016377
1263 2 3.76516 16.165623 45.79736
1264 2 2.865007 17.42944 23.916813
1265 2 2.865007 17.42944 36.697021
1266 2 2.865007 17.42944 49.478004
1267 2 10.679688 16.370891 26.793504
1268 2 10.679688 16.370891 39.574488
1269 2 10.679688 16.370891 52.354695
1270 2 9.11434 15.542872 26.749272
1271 2 9.11434 15.542872 39.530255
1272 2 9.11434 15.542872 52.310463
1273 2 8.399353 16.750478 28.698624
1274 2 8.399353 16.750478 41.479607
1275 2 8.399353 16.750478 54.260591
1276 2 11.234018 17.596181 28.786314
1277 2 11.234018 17.596181 41.567297
1278 2 11.234018 17.596181 54.347505
1279 2 9.923078 17.908188 29.899896
1280 2 9.923078 17.908188 42.680104
1281 2 9.923078 17.908188 55.461088
1282 2 9.640272 18.764628 21.482451
1283 2 9.640272 18.764628 34.262658
1284 2 9.640272 18.764628 47.043642
1285 2 8.209908 15.503713 21.866579
1286 2 8.209908 15.503713 34.646786
1287 2 8.209908 15.503713 47.42777
1288 2 10.506971 15.92246 21.999278
1289 2 10.506971 15.92246 34.779485
1290 2 10.506971 15.92246 47.560469
1291 2 7.802233 16.982904 21.250422
1292 2 7.802233 16.982904 34.03063
1293 2 7.802233 16.982904 46.811613
1294 2 11.104869 18.169667 21.9403
1295 2 11.104869 18.169667 34.721284
1296 2 11.104869 18.169667 47.501491
1297 2 3.404165 21.47353 29.210794
1298 2 3.404165 21.47353 41.991002
1299 2 3.404165 21.47353 54.771985
1300 2 4.321823 22.820718 29.095944
1301 2 4.321823 22.820718 41.876927
1302 2 4.321823 22.820718 54.657911
1303 2 3.387049 24.457807 27.152024
1304 2 3.387049 24.457807 39.933007
1305 2 3.387049 24.457807 52.713991
1306 2 1.914673 21.937751 27.789909
1307 2 1.914673 21.937751 40.570116
1308 2 1.914673 21.937751 53.3511
1309 2 1.923231 23.65 26.430329
1310 2 1.923231 23.65 39.211312
1311 2 1.923231 23.65 51.992296
1312 2 2.268276 22.4885 23.408523
1313 2 2.268276 22.4885 36.189506
1314 2 2.268276 22.4885 48.97049
1315 2 2.681787 24.215276 23.402315
1316 2 2.681787 24.215276 36.182522
1317 2 2.681787 24.215276 48.963506
1318 2 3.648459 24.887922 21.300863
1319 2 3.648459 24.887922 34.081847
1320 2 3.648459 24.887922 46.86283
1321 2 2.91441 22.04449 21.282239
1322 2 2.91441 22.04449 34.062446
1323 2 2.91441 22.04449 46.84343
1324 2 3.82351 23.653158 20.00026
1325 2 3.82351 23.653158 32.780468
1326 2 3.82351 23.653158 45.561451
1327 2 11.758783 23.88811 28.716472
1328 2 11.758783 23.88811 41.497456
1329 2 11.758783 23.88811 54.278439
1330 2 11.211844 22.862403 30.079156
1331 2 11.211844 22.862403 42.86014
1332 2 11.211844 22.862403 55.641123
1333 2 8.239084 22.207441 27.95132
1334 2 8.239084 22.207441 40.731528
1335 2 8.239084 22.207441 53.512511
1336 2 8.770073 22.102597 29.688044
1337 2 8.770073 22.102597 42.469028
1338 2 8.770073 22.102597 55.250011
1339 2 10.217553 23.148515 27.270754
1340 2 10.217553 23.148515 40.051738
1341 2 10.217553 23.148515 52.831945
1342 2 11.669701 23.631684 20.84379
1343 2 11.669701 23.631684 33.624773
1344 2 11.669701 23.631684 46.405757
1345 2 8.132108 23.213569 22.669755
1346 2 8.132108 23.213569 35.450739
1347 2 8.132108 23.213569 48.231722
1348 2 11.786402 22.731032 22.372541
1349 2 11.786402 22.731032 35.153525
1350 2 11.786402 22.731032 47.934508
1351 2 9.360579 22.15944 23.292896
1352 2 9.360579 22.15944 36.07388
1353 2 9.360579 22.15944 48.854087
1354 2 9.376917 23.608946 20.728939
1355 2 9.376917 23.608946 33.509923
1356 2 9.376917 23.608946 46.290906
1357 6 6.273062 13.605776 31.317678
1358 6 6.273062 13.605776 44.098661
1359 6 6.273062 13.605776 56.878869
1360 6 6.564037 13.447247 25.020308
1361 6 6.564037 13.447247 37.801291
1362 6 6.564037 13.447247 50.582275
1363 6 12.891559 13.846413 31.590835
1364 6 12.891559 13.846413 44.371819
1365 6 12.891559 13.846413 57.152802
1366 6 12.705616 14.032102 24.837944
1367 6 12.705616 14.032102 37.618928
1368 6 12.705616 14.032102 50.399911
1369 6 0.303811 20.146554 25.23216
1370 6 0.303811 20.146554 38.013144
1371 6 0.303811 20.146554 50.794127
1372 6 0.018283 20.03413 31.638948
1373 6 0.018283 20.03413 44.419932
1374 6 0.018283 20.03413 57.200915
1375 6 6.752314 19.641911 25.178615
1376 6 6.752314 19.641911 37.959599
1377 6 6.752314 19.641911 50.740582
1378 6 6.655452 19.95076 31.562123
1379 6 6.655452 19.95076 44.343106
1380 6 6.655452 19.95076 57.12409
1381 3 3.027999 14.120525 31.4496
1382 3 3.027999 14.120525 44.229808
1383 3 3.027999 14.120525 57.010791
1384 3 6.046274 13.47251 28.388993
1385 3 6.046274 13.47251 41.169977
1386 3 6.046274 13.47251 53.95096
1387 3 6.522024 16.556579 25.023412
1388 3 6.522024 16.556579 37.804395
1389 3 6.522024 16.556579 50.585379
1390 3 3.02372 13.910836 25.031948
1391 3 3.02372 13.910836 37.812156
1392 3 3.02372 13.910836 50.593139
1393 3 6.248166 13.783886 21.872787
1394 3 6.248166 13.783886 34.652994
1395 3 6.248166 13.783886 47.433978
1396 3 12.714563 13.86094 27.942784
1397 3 12.714563 13.86094 40.722992
1398 3 12.714563 13.86094 53.503975
1399 3 6.714581 16.651318 31.453481
1400 3 6.714581 16.651318 44.234464
1401 3 6.714581 16.651318 57.014672
1402 3 9.756584 13.362613 31.101945
1403 3 9.756584 13.362613 43.882929
1404 3 9.756584 13.362613 56.663912
1405 3 12.352401 13.625356 21.799065
1406 3 12.352401 13.625356 34.580049
1407 3 12.352401 13.625356 47.360256
1408 3 12.597473 16.975957 25.13283
1409 3 12.597473 16.975957 37.913814
1410 3 12.597473 16.975957 50.694797
1411 3 12.856938 16.871744 32.040149
1412 3 12.856938 16.871744 44.821132
1413 3 12.856938 16.871744 57.60134
1414 3 9.624712 13.591881 24.920978
1415 3 9.624712 13.591881 37.701185
1416 3 9.624712 13.591881 50.482169
1417 3 3.327921 19.189059 25.951527
1418 3 3.327921 19.189059 38.732511
1419 3 3.327921 19.189059 51.513494
1420 3 0.118646 19.749282 28.488323
1421 3 0.118646 19.749282 41.269307
1422 3 0.118646 19.749282 54.049514
1423 3 6.374203 19.520645 28.545749
1424 3 6.374203 19.520645 41.326732
1425 3 6.374203 19.520645 54.10694
1426 3 0.406508 23.163042 31.879513
1427 3 0.406508 23.163042 44.659721
1428 3 0.406508 23.163042 57.440704
1429 3 3.249342 19.574962 31.680077
1430 3 3.249342 19.574962 44.461061
1431 3 3.249342 19.574962 57.242044
1432 3 6.391708 19.907811 22.093176
1433 3 6.391708 19.907811 34.874159
1434 3 6.391708 19.907811 47.655143
1435 3 0.467582 20.075184 22.078431
1436 3 0.467582 20.075184 34.858639
1437 3 0.467582 20.075184 47.639622
1438 3 6.559758 22.761349 25.381155
1439 3 6.559758 22.761349 38.162139
1440 3 6.559758 22.761349 50.943122
1441 3 6.634446 22.859877 31.015031
1442 3 6.634446 22.859877 43.796015
1443 3 6.634446 22.859877 56.576222
1444 3 10.05884 20.028446 24.650148
1445 3 10.05884 20.028446 37.431132
1446 3 10.05884 20.028446 50.212115
1447 3 12.703282 23.048723 25.102566
1448 3 12.703282 23.048723 37.883549
1449 3 12.703282 23.048723 50.664533
1450 3 9.707959 20.175607 31.704134
1451 3 9.707959 20.175607 44.484341
1452 3 9.707959 20.175607 57.265325
1453 1 16.107058 17.003747 28.679223
1454 1 16.107058 17.003747 41.460207
1455 1 16.107058 17.003747 54.24119
1456 1 16.342016 16.605212 22.174657
1457 1 16.342016 16.605212 34.955641
1458 1 16.342016 16.605212 47.736624
1459 1 22.371952 16.854059 28.280351
1460 1 22.371952 16.854059 41.061335
1461 1 22.371952 16.854059 53.841542
1462 1 22.753952 16.704372 21.736984
1463 1 22.753952 16.704372 34.517968
1464 1 22.753952 16.704372 47.298175
1465 1 15.671764 22.626188 27.858198
1466 1 15.671764 22.626188 40.639182
1467 1 15.671764 22.626188 53.419389
1468 1 16.030814 23.016512 21.754833
1469 1 16.030814 23.016512 34.53504
1470 1 16.030814 23.016512 47.316024
1471 1 23.038314 22.901562 28.304408
1472 1 23.038314 22.901562 41.085391
1473 1 23.038314 22.901562 53.865599
1474 1 22.827085 23.200306 21.646966
1475 1 22.827085 23.200306 34.42795
1476 1 22.827085 23.200306 47.208933
1477 4 15.165671 16.670266 27.802325
1478 4 15.165671 16.670266 40.583309
1479 4 15.165671 16.670266 53.363516
1480 4 17.281069 16.445419 28.749065
1481 4 17.281069 16.445419 41.530048
1482 4 17.281069 16.445419 54.311032
1483 4 16.259936 16.778268 20.880263
1484 4 16.259936 16.778268 33.661246
1485 4 16.259936 16.778268 46.44223
1486 4 15.460146 17.17933 23.025171
1487 4 15.460146 17.17933 35.806154
1488 4 15.460146 17.17933 48.586362
1489 4 23.229314 17.519758 29.00903
1490 4 23.229314 17.519758 41.789238
1491 4 23.229314 17.519758 54.570221
1492 4 22.667205 16.252783 27.14504
1493 4 22.667205 16.252783 39.925247
1494 4 22.667205 16.252783 52.706231
1495 4 23.16863 17.954294 21.586437
1496 4 23.16863 17.954294 34.366645
1497 4 23.16863 17.954294 47.147628
1498 4 21.535595 16.355732 21.465379
1499 4 21.535595 16.355732 34.245586
1500 4 21.535595 16.355732 47.02657
1501 4 16.466108 22.385551 28.838307
1502 4 16.466108 22.385551 41.618514
1503 4 16.466108 22.385551 54.399498
1504 4 15.685379 23.704317 27.117103
1505 4 15.685379 23.704317 39.898087
1506 4 15.685379 23.704317 52.678294
1507 4 15.67332 23.252728 22.99025
1508 4 15.67332 23.252728 35.770458
1509 4 15.67332 23.252728 48.551441
1510 4 16.491004 23.937375 20.911303
1511 4 16.491004 23.937375 33.692287
1512 4 16.491004 23.937375 46.47327
1513 4 21.92771 22.383656 28.651287
1514 4 21.92771 22.383656 41.43227
1515 4 21.92771 22.383656 54.213254
1516 4 24.081231 23.159884 29.082752
1517 4 24.081231 23.159884 41.862959
1518 4 24.081231 23.159884 54.643943
1519 4 24.123632 23.116304 21.657831
1520 4 24.123632 23.116304 34.438814
1521 4 24.123632 23.116304 47.219798
1522 4 21.992285 22.833982 22.605346
1523 4 21.992285 22.833982 35.38633
1524 4 21.992285 22.833982 48.167313
1525 2 15.367175 15.919933 27.129519
1526 2 15.367175 15.919933 39.910503
1527 2 15.367175 15.919933 52.69071
1528 2 17.43667 15.515082 28.319928
1529 2 17.43667 15.515082 41.100911
1530 2 17.43667 15.515082 53.881119
1531 2 15.937842 17.881029 29.268219
1532 2 15.937842 17.881029 42.048427
1533 2 15.937842 17.881029 54.82941
1534 2 14.332816 17.17554 27.831038
1535 2 14.332816 17.17554 40.612021
1536 2 14.332816 17.17554 53.393005
1537 2 18.078136 16.919745 29.305468
1538 2 18.078136 16.919745 42.086452
1539 2 18.078136 16.919745 54.867435
1540 2 15.451588 17.296174 20.516311
1541 2 15.451588 17.296174 33.297295
1542 2 15.451588 17.296174 46.078278
1543 2 14.961444 17.922715 22.586722
1544 2 14.961444 17.922715 35.367705
1545 2 14.961444 17.922715 48.147913
1546 2 17.091625 16.041199 22.60457
1547 2 17.091625 16.041199 35.385554
1548 2 17.091625 16.041199 48.165761
1549 2 16.731797 16.165623 20.235393
1550 2 16.731797 16.165623 33.016377
1551 2 16.731797 16.165623 45.79736
1552 2 15.832033 17.42944 23.916813
1553 2 15.832033 17.42944 36.697021
1554 2 15.832033 17.42944 49.478004
1555 2 23.646714 16.370891 26.793504
1556 2 23.646714 16.370891 39.574488
1557 2 23.646714 16.370891 52.354695
1558 2 22.081366 15.542872 26.749272
1559 2 22.081366 15.542872 39.530255
1560 2 22.081366 15.542872 52.310463
1561 2 21.36599 16.750478 28.698624
1562 2 21.36599 16.750478 41.479607
1563 2 21.36599 16.750478 54.260591
1564 2 24.200655 17.596181 28.786314
1565 2 24.200655 17.596181 41.567297
1566 2 24.200655 17.596181 54.347505
1567 2 22.890104 17.908188 29.899896
1568 2 22.890104 17.908188 42.680104
1569 2 22.890104 17.908188 55.461088
1570 2 22.607298 18.764628 21.482451
1571 2 22.607298 18.764628 34.262658
1572 2 22.607298 18.764628 47.043642
1573 2 21.176545 15.503713 21.866579
1574 2 21.176545 15.503713 34.646786
1575 2 21.176545 15.503713 47.42777
1576 2 23.473997 15.92246 21.999278
1577 2 23.473997 15.92246 34.779485
1578 2 23.473997 15.92246 47.560469
1579 2 20.769259 16.982904 21.250422
1580 2 20.769259 16.982904 34.03063
1581 2 20.769259 16.982904 46.811613
1582 2 24.071506 18.169667 21.9403
1583 2 24.071506 18.169667 34.721284
1584 2 24.071506 18.169667 47.501491
1585 2 16.370802 21.47353 29.210794
1586 2 16.370802 21.47353 41.991002
1587 2 16.370802 21.47353 54.771985
1588 2 17.28846 22.820718 29.095944
1589 2 17.28846 22.820718 41.876927
1590 2 17.28846 22.820718 54.657911
1591 2 16.353686 24.457807 27.152024
1592 2 16.353686 24.457807 39.933007
1593 2 16.353686 24.457807 52.713991
1594 2 14.881699 21.937751 27.789909
1595 2 14.881699 21.937751 40.570116
1596 2 14.881699 21.937751 53.3511
1597 2 14.889868 23.65 26.430329
1598 2 14.889868 23.65 39.211312
1599 2 14.889868 23.65 51.992296
1600 2 15.234913 22.4885 23.408523
1601 2 15.234913 22.4885 36.189506
1602 2 15.234913 22.4885 48.97049
1603 2 15.648813 24.215276 23.402315
1604 2 15.648813 24.215276 36.182522
1605 2 15.648813 24.215276 48.963506
1606 2 16.615096 24.887922 21.300863
1607 2 16.615096 24.887922 34.081847
1608 2 16.615096 24.887922 46.86283
1609 2 15.881436 22.04449 21.282239
1610 2 15.881436 22.04449 34.062446
1611 2 15.881436 22.04449 46.84343
1612 2 16.790536 23.653158 20.00026
1613 2 16.790536 23.653158 32.780468
1614 2 16.790536 23.653158 45.561451
1615 2 24.725809 23.88811 28.716472
1616 2 24.725809 23.88811 41.497456
1617 2 24.725809 23.88811 54.278439
1618 2 24.17887 22.862403 30.079156
1619 2 24.17887 22.862403 42.86014
1620 2 24.17887 22.862403 55.641123
1621 2 21.205721 22.207441 27.95132
1622 2 21.205721 22.207441 40.731528
1623 2 21.205721 22.207441 53.512511
1624 2 21.737099 22.102597 29.688044
1625 2 21.737099 22.102597 42.469028
1626 2 21.737099 22.102597 55.250011
1627 2 23.18419 23.148515 27.270754
1628 2 23.18419 23.148515 40.051738
1629 2 23.18419 23.148515 52.831945
1630 2 24.636727 23.631684 20.84379
1631 2 24.636727 23.631684 33.624773
1632 2 24.636727 23.631684 46.405757
1633 2 21.099134 23.213569 22.669755
1634 2 21.099134 23.213569 35.450739
1635 2 21.099134 23.213569 48.231722
1636 2 24.753428 22.731032 22.372541
1637 2 24.753428 22.731032 35.153525
1638 2 24.753428 22.731032 47.934508
1639 2 22.327605 22.15944 23.292896
1640 2 22.327605 22.15944 36.07388
1641 2 22.327605 22.15944 48.854087
1642 2 22.343554 23.608946 20.728939
1643 2 22.343554 23.608946 33.509923
1644 2 22.343554 23.608946 46.290906
1645 6 19.239699 13.605776 31.317678
1646 6 19.239699 13.605776 44.098661
1647 6 19.239699 13.605776 56.878869
1648 6 19.531063 13.447247 25.020308
1649 6 19.531063 13.447247 37.801291
1650 6 19.531063 13.447247 50.582275
1651 6 25.858196 13.846413 31.590835
1652 6 25.858196 13.846413 44.371819
1653 6 25.858196 13.846413 57.152802
1654 6 25.672642 14.032102 24.837944
1655 6 25.672642 14.032102 37.618928
1656 6 25.672642 14.032102 50.399911
1657 6 13.270448 20.146554 25.23216
1658 6 13.270448 20.146554 38.013144
1659 6 13.270448 20.146554 50.794127
1660 6 12.98492 20.03413 31.638948
1661 6 12.98492 20.03413 44.419932
1662 6 12.98492 20.03413 57.200915
1663 6 19.718951 19.641911 25.178615
1664 6 19.718951 19.641911 37.959599
1665 6 19.718951 19.641911 50.740582
1666 6 19.622478 19.95076 31.562123
1667 6 19.622478 19.95076 44.343106
1668 6 19.622478 19.95076 57.12409
1669 3 15.994636 14.120525 31.4496
1670 3 15.994636 14.120525 44.229808
1671 3 15.994636 14.120525 57.010791
1672 3 19.012911 13.47251 28.388993
1673 3 19.012911 13.47251 41.169977
1674 3 19.012911 13.47251 53.95096
1675 3 19.488661 16.556579 25.023412
1676 3 19.488661 16.556579 37.804395
1677 3 19.488661 16.556579 50.585379
1678 3 15.990357 13.910836 25.031948
1679 3 15.990357 13.910836 37.812156
1680 3 15.990357 13.910836 50.593139
1681 3 19.215192 13.783886 21.872787
1682 3 19.215192 13.783886 34.652994
1683 3 19.215192 13.783886 47.433978
1684 3 25.6812 13.86094 27.942784
1685 3 25.6812 13.86094 40.722992
1686 3 25.6812 13.86094 53.503975
1687 3 19.681218 16.651318 31.453481
1688 3 19.681218 16.651318 44.234464
1689 3 19.681218 16.651318 57.014672
1690 3 22.72361 13.362613 31.101945
1691 3 22.72361 13.362613 43.882929
1692 3 22.72361 13.362613 56.663912
1693 3 25.319038 13.625356 21.799065
1694 3 25.319038 13.625356 34.580049
1695 3 25.319038 13.625356 47.360256
1696 3 25.56411 16.975957 25.13283
1697 3 25.56411 16.975957 37.913814
1698 3 25.56411 16.975957 50.694797
1699 3 25.823964 16.871744 32.040149
1700 3 25.823964 16.871744 44.821132
1701 3 25.823964 16.871744 57.60134
1702 3 22.591349 13.591881 24.920978
1703 3 22.591349 13.591881 37.701185
1704 3 22.591349 13.591881 50.482169
1705 3 16.294558 19.189059 25.951527
1706 3 16.294558 19.189059 38.732511
1707 3 16.294558 19.189059 51.513494
1708 3 13.085283 19.749282 28.488323
1709 3 13.085283 19.749282 41.269307
1710 3 13.085283 19.749282 54.049514
1711 3 19.34084 19.520645 28.545749
1712 3 19.34084 19.520645 41.326732
1713 3 19.34084 19.520645 54.10694
1714 3 13.373145 23.163042 31.879513
1715 3 13.373145 23.163042 44.659721
1716 3 13.373145 23.163042 57.440704
1717 3 16.215979 19.574962 31.680077
1718 3 16.215979 19.574962 44.461061
1719 3 16.215979 19.574962 57.242044
1720 3 19.358345 19.907811 22.093176
1721 3 19.358345 19.907811 34.874159
1722 3 19.358345 19.907811 47.655143
1723 3 13.434608 20.075184 22.078431
1724 3 13.434608 20.075184 34.858639
1725 3 13.434608 20.075184 47.639622
1726 3 19.526784 22.761349 25.381155
1727 3 19.526784 22.761349 38.162139
1728 3 19.526784 22.761349 50.943122
1729 3 19.601472 22.859877 31.015031
1730 3 19.601472 22.859877 43.796015
1731 3 19.601472 22.859877 56.576222
1732 3 23.025477 20.028446 24.650148
1733 3 23.025477 20.028446 37.431132
1734 3 23.025477 20.028446 50.212115
1735 3 25.670308 23.048723 25.102566
1736 3 25.670308 23.048723 37.883549
1737 3 25.670308 23.048723 50.664533
1738 3 22.674596 20.175607 31.704134
1739 3 22.674596 20.175607 44.484341
1740 3 22.674596 20.175607 57.265325
1741 1 29.074084 17.003747 28.679223
1742 1 29.074084 17.003747 41.460207
1743 1 29.074084 17.003747 54.24119
1744 1 29.308653 16.605212 22.174657
1745 1 29.308653 16.605212 34.955641
1746 1 29.308653 16.605212 47.736624
1747 1 35.338589 16.854059 28.280351
1748 1 35.338589 16.854059 41.061335
1749 1 35.338589 16.854059 53.841542
1750 1 35.720978 16.704372 21.736984
1751 1 35.720978 16.704372 34.517968
1752 1 35.720978 16.704372 47.298175
1753 1 28.63879 22.626188 27.858198
1754 1 28.63879 22.626188 40.639182
1755 1 28.63879 22.626188 53.419389
1756 1 28.99784 23.016512 21.754833
1757 1 28.99784 23.016512 34.53504
1758 1 28.99784 23.016512 47.316024
1759 1 36.004951 22.901562 28.304408
1760 1 36.004951 22.901562 41.085391
1761 1 36.004951 22.901562 53.865599
1762 1 35.793722 23.200306 21.646966
1763 1 35.793722 23.200306 34.42795
1764 1 35.793722 23.200306 47.208933
1765 4 28.132697 16.670266 27.802325
1766 4 28.132697 16.670266 40.583309
1767 4 28.132697 16.670266 53.363516
1768 4 30.247706 16.445419 28.749065
1769 4 30.247706 16.445419 41.530048
1770 4 30.247706 16.445419 54.311032
1771 4 29.226573 16.778268 20.880263
1772 4 29.226573 16.778268 33.661246
1773 4 29.226573 16.778268 46.44223
1774 4 28.426783 17.17933 23.025171
1775 4 28.426783 17.17933 35.806154
1776 4 28.426783 17.17933 48.586362
1777 4 36.195951 17.519758 29.00903
1778 4 36.195951 17.519758 41.789238
1779 4 36.195951 17.519758 54.570221
1780 4 35.633842 16.252783 27.14504
1781 4 35.633842 16.252783 39.925247
1782 4 35.633842 16.252783 52.706231
1783 4 36.135267 17.954294 21.586437
1784 4 36.135267 17.954294 34.366645
1785 4 36.135267 17.954294 47.147628
1786 4 34.502232 16.355732 21.465379
1787 4 34.502232 16.355732 34.245586
1788 4 34.502232 16.355732 47.02657
1789 4 29.432745 22.385551 28.838307
1790 4 29.432745 22.385551 41.618514
1791 4 29.432745 22.385551 54.399498
1792 4 28.652016 23.704317 27.117103
1793 4 28.652016 23.704317 39.898087
1794 4 28.652016 23.704317 52.678294
1795 4 28.639957 23.252728 22.99025
1796 4 28.639957 23.252728 35.770458
1797 4 28.639957 23.252728 48.551441
1798 4 29.457641 23.937375 20.911303
1799 4 29.457641 23.937375 33.692287
1800 4 29.457641 23.937375 46.47327
1801 4 34.894347 22.383656 28.651287
1802 4 34.894347 22.383656 41.43227
1803 4 34.894347 22.383656 54.213254
1804 4 37.048257 23.159884 29.082752
1805 4 37.048257 23.159884 41.862959
1806 4 37.048257 23.159884 54.643943
1807 4 37.090269 23.116304 21.657831
1808 4 37.090269 23.116304 34.438814
1809 4 37.090269 23.116304 47.219798
1810 4 34.959311 22.833982 22.605346
1811 4 34.959311 22.833982 35.38633
1812 4 34.959311 22.833982 48.167313
1813 2 28.333812 15.919933 27.129519
1814 2 28.333812 15.919933 39.910503
1815 2 28.333812 15.919933 52.69071
1816 2 30.403696 15.515082 28.319928
1817 2 30.403696 15.515082 41.100911
1818 2 30.403696 15.515082 53.881119
1819 2 28.904868 17.881029 29.268219
1820 2 28.904868 17.881029 42.048427
1821 2 28.904868 17.881029 54.82941
1822 2 27.299453 17.17554 27.831038
1823 2 27.299453 17.17554 40.612021
1824 2 27.299453 17.17554 53.393005
1825 2 31.044773 16.919745 29.305468
1826 2 31.044773 16.919745 42.086452
1827 2 31.044773 16.919745 54.867435
1828 2 28.418225 17.296174 20.516311
1829 2 28.418225 17.296174 33.297295
1830 2 28.418225 17.296174 46.078278
1831 2 27.928081 17.922715 22.586722
1832 2 27.928081 17.922715 35.367705
1833 2 27.928081 17.922715 48.147913
1834 2 30.058262 16.041199 22.60457
1835 2 30.058262 16.041199 35.385554
1836 2 30.058262 16.041199 48.165761
1837 2 29.698823 16.165623 20.235393
1838 2 29.698823 16.165623 33.016377
1839 2 29.698823 16.165623 45.79736
1840 2 28.79867 17.42944 23.916813
1841 2 28.79867 17.42944 36.697021
1842 2 28.79867 17.42944 49.478004
1843 2 36.613351 16.370891 26.793504
1844 2 36.613351 16.370891 39.574488
1845 2 36.613351 16.370891 52.354695
1846 2 35.048003 15.542872 26.749272
1847 2 35.048003 15.542872 39.530255
1848 2 35.048003 15.542872 52.310463
1849 2 34.333016 16.750478 28.698624
1850 2 34.333016 16.750478 41.479607
1851 2 34.333016 16.750478 54.260591
1852 2 37.167681 17.596181 28.786314
1853 2 37.167681 17.596181 41.567297
1854 2 37.167681 17.596181 54.347505
1855 2 35.856741 17.908188 29.899896
1856 2 35.856741 17.908188 42.680104
1857 2 35.856741 17.908188 55.461088
1858 2 35.573935 18.764628 21.482451
1859 2 35.573935 18.764628 34.262658
1860 2 35.573935 18.764628 47.043642
1861 2 34.143182 15.503713 21.866579
1862 2 34.143182 15.503713 34.646786
1863 2 34.143182 15.503713 47.42777
1864 2 36.440634 15.92246 21.999278
1865 2 36.440634 15.92246 34.779485
1866 2 36.440634 15.92246 47.560469
1867 2 33.735896 16.982904 21.250422
1868 2 33.735896 16.982904 34.03063
1869 2 33.735896 16.982904 46.811613
1870 2 37.038143 18.169667 21.9403
1871 2 37.038143 18.169667 34.721284
1872 2 37.038143 18.169667 47.501491
1873 2 29.337439 21.47353 29.210794
1874 2 29.337439 21.47353 41.991002
1875 2 29.337439 21.47353 54.771985
1876 2 30.255486 22.820718 29.095944
1877 2 30.255486 22.820718 41.876927
1878 2 30.255486 22.820718 54.657911
1879 2 29.320712 24.457807 27.152024
1880 2 29.320712 24.457807 39.933007
1881 2 29.320712 24.457807 52.713991
1882 2 27.848336 21.937751 27.789909
1883 2 27.848336 21.937751 40.570116
1884 2 27.848336 21.937751 53.3511
1885 2 27.856505 23.65 26.430329
1886 2 27.856505 23.65 39.211312
1887 2 27.856505 23.65 51.992296
1888 2 28.20155 22.4885 23.408523
1889 2 28.20155 22.4885 36.189506
1890 2 28.20155 22.4885 48.97049
1891 2 28.61545 24.215276 23.402315
1892 2 28.61545 24.215276 36.182522
1893 2 28.61545 24.215276 48.963506
1894 2 29.581733 24.887922 21.300863
1895 2 29.581733 24.887922 34.081847
1896 2 29.581733 24.887922 46.86283
1897 2 28.848073 22.04449 21.282239
1898 2 28.848073 22.04449 34.062446
1899 2 28.848073 22.04449 46.84343
1900 2 29.757173 23.653158 20.00026
1901 2 29.757173 23.653158 32.780468
1902 2 29.757173 23.653158 45.561451
1903 2 37.692446 23.88811 28.716472
1904 2 37.692446 23.88811 41.497456
1905 2 37.692446 23.88811 54.278439
1906 2 37.145507 22.862403 30.079156
1907 2 37.145507 22.862403 42.86014
1908 2 37.145507 22.862403 55.641123
1909 2 34.172747 22.207441 27.95132
1910 2 34.172747 22.207441 40.731528
1911 2 34.172747 22.207441 53.512511
1912 2 34.703736 22.102597 29.688044
1913 2 34.703736 22.102597 42.469028
1914 2 34.703736 22.102597 55.250011
1915 2 36.150827 23.148515 27.270754
1916 2 36.150827 23.148515 40.051738
1917 2 36.150827 23.148515 52.831945
1918 2 37.603364 23.631684 20.84379
1919 2 37.603364 23.631684 33.624773
1920 2 37.603364 23.631684 46.405757
1921 2 34.065771 23.213569 22.669755
1922 2 34.065771 23.213569 35.450739
1923 2 34.065771 23.213569 48.231722
1924 2 37.720065 22.731032 22.372541
1925 2 37.720065 22.731032 35.153525
1926 2 37.720065 22.731032 47.934508
1927 2 35.294242 22.15944 23.292896
1928 2 35.294242 22.15944 36.07388
1929 2 35.294242 22.15944 48.854087
1930 2 35.310191 23.608946 20.728939
1931 2 35.310191 23.608946 33.509923
1932 2 35.310191 23.608946 46.290906
1933 6 32.206336 13.605776 31.317678
1934 6 32.206336 13.605776 44.098661
1935 6 32.206336 13.605776 56.878869
1936 6 32.4977 13.447247 25.020308
1937 6 32.4977 13.447247 37.801291
1938 6 32.4977 13.447247 50.582275
1939 6 38.824833 13.846413 31.590835
1940 6 38.824833 13.846413 44.371819
1941 6 38.824833 13.846413 57.152802
1942 6 38.639279 14.032102 24.837944
1943 6 38.639279 14.032102 37.618928
1944 6 38.639279 14.032102 50.399911
1945 6 26.237085 20.146554 25.23216
1946 6 26.237085 20.146554 38.013144
1947 6 26.237085 20.146554 50.794127
1948 6 25.951946 20.03413 31.638948
1949 6 25.951946 20.03413 44.419932
1950 6 25.951946 20.03413 57.200915
1951 6 32.685977 19.641911 25.178615
1952 6 32.685977 19.641911 37.959599
1953 6 32.685977 19.641911 50.740582
1954 6 32.589115 19.95076 31.562123
1955 6 32.589115 19.95076 44.343106
1956 6 32.589115 19.95076 57.12409
1957 3 28.961273 14.120525 31.4496
1958 3 28.961273 14.120525 44.229808
1959 3 28.961273 14.120525 57.010791
1960 3 31.979548 13.47251 28.388993
1961 3 31.979548 13.47251 41.169977
1962 3 31.979548 13.47251 53.95096
1963 3 32.455298 16.556579 25.023412
1964 3 32.455298 16.556579 37.804395
1965 3 32.455298 16.556579 50.585379
1966 3 28.956994 13.910836 25.031948
1967 3 28.956994 13.910836 37.812156
1968 3 28.956994 13.910836 50.593139
1969 3 32.181829 13.783886 21.872787
1970 3 32.181829 13.783886 34.652994
1971 3 32.181829 13.783886 47.433978
1972 3 38.648226 13.86094 27.942784
1973 3 38.648226 13.86094 40.722992
1974 3 38.648226 13.86094 53.503975
1975 3 32.647855 16.651318 31.453481
1976 3 32.647855 16.651318 44.234464
1977 3 32.647855 16.651318 57.014672
1978 3 35.690247 13.362613 31.101945
1979 3 35.690247 13.362613 43.882929
1980 3 35.690247 13.362613 56.663912
1981 3 38.285675 13.625356 21.799065
1982 3 38.285675 13.625356 34.580049
1983 3 38.285675 13.625356 47.360256
1984 3 38.530747 16.975957 25.13283
1985 3 38.530747 16.975957 37.913814
1986 3 38.530747 16.975957 50.694797
1987 3 38.790601 16.871744 32.040149
1988 3 38.790601 16.871744 44.821132
1989 3 38.790601 16.871744 57.60134
1990 3 35.557986 13.591881 24.920978
1991 3 35.557986 13.591881 37.701185
1992 3 35.557986 13.591881 50.482169
1993 3 29.261195 19.189059 25.951527
1994 3 29.261195 19.189059 38.732511
1995 3 29.261195 19.189059 51.513494
1996 3 26.05192 19.749282 28.488323
1997 3 26.05192 19.749282 41.269307
1998 3 26.05192 19.749282 54.049514
1999 3 32.307477 19.520645 28.545749
2000 3 32.307477 19.520645 41.326732
2001 3 32.307477 19.520645 54.10694
2002 3 26.339782 23.163042 31.879513
2003 3 26.339782 23.163042 44.659721
2004 3 26.339782 23.163042 57.440704
2005 3 29.182616 19.574962 31.680077
2006 3 29.182616 19.574962 44.461061
2007 3 29.182616 19.574962 57.242044
2008 3 32.325371 19.907811 22.093176
2009 3 32.325371 19.907811 34.874159
2010 3 32.325371 19.907811 47.655143
2011 3 26.401245 20.075184 22.078431
2012 3 26.401245 20.075184 34.858639
2013 3 26.401245 20.075184 47.639622
2014 3 32.493421 22.761349 25.381155
2015 3 32.493421 22.761349 38.162139
2016 3 32.493421 22.761349 50.943122
2017 3 32.568109 22.859877 31.015031
2018 3 32.568109 22.859877 43.796015
2019 3 32.568109 22.859877 56.576222
2020 3 35.992503 20.028446 24.650148
2021 3 35.992503 20.028446 37.431132
2022 3 35.992503 20.028446 50.212115
2023 3 38.636945 23.048723 25.102566
2024 3 38.636945 23.048723 37.883549
2025 3 38.636945 23.048723 50.664533
2026 3 35.641233 20.175607 31.704134
2027 3 35.641233 20.175607 44.484341
2028 3 35.641233 20.175607 57.265325
2029 1 3.140421 29.635607 28.679223
2030 1 3.140421 29.635607 41.460207
2031 1 3.140421 29.635607 54.24119
2032 1 3.375379 29.237072 22.174657
2033 1 3.375379 29.237072 34.955641
2034 1 3.375379 29.237072 47.736624
2035 1 9.404926 29.485919 28.280351
2036 1 9.404926 29.485919 41.061335
2037 1 9.404926 29.485919 53.841542
2038 1 9.787315 29.336232 21.736984
2039 1 9.787315 29.336232 34.517968
2040 1 9.787315 29.336232 47.298175
2041 1 2.705127 35.258048 27.858198
2042 1 2.705127 35.258048 40.639182
2043 1 2.705127 35.258048 53.419389
2044 1 3.064177 35.648372 21.754833
2045 1 3.064177 35.648372 34.53504
2046 1 3.064177 35.648372 47.316024
2047 1 10.071288 35.533422 28.304408
2048 1 10.071288 35.533422 41.085391
2049 1 10.071288 35.533422 53.865599
2050 1 9.860448 35.832166 21.646966
2051 1 9.860448 35.832166 34.42795
2052 1 9.860448 35.832166 47.208933
2053 4 2.199034 29.302126 27.802325
2054 4 2.199034 29.302126 40.583309
2055 4 2.199034 29.302126 53.363516
2056 4 4.314432 29.077279 28.749065
2057 4 4.314432 29.077279 41.530048
2058 4 4.314432 29.077279 54.311032
2059 4 3.293299 29.410128 20.880263
2060 4 3.293299 29.410128 33.661246
2061 4 3.293299 29.410128 46.44223
2062 4 2.493509 29.81119 23.025171
2063 4 2.493509 29.81119 35.806154
2064 4 2.493509 29.81119 48.586362
2065 4 10.262677 30.151618 29.00903
2066 4 10.262677 30.151618 41.789238
2067 4 10.262677 30.151618 54.570221
2068 4 9.700568 28.884643 27.14504
2069 4 9.700568 28.884643 39.925247
2070 4 9.700568 28.884643 52.706231
2071 4 10.201993 30.586154 21.586437
2072 4 10.201993 30.586154 34.366645
2073 4 10.201993 30.586154 47.147628
2074 4 8.568569 28.987592 21.465379
2075 4 8.568569 28.987592 34.245586
2076 4 8.568569 28.987592 47.02657
2077 4 3.499471 35.017411 28.838307
2078 4 3.499471 35.017411 41.618514
2079 4 3.499471 35.017411 54.399498
2080 4 2.718353 36.336177 27.117103
2081 4 2.718353 36.336177 39.898087
2082 4 2.718353 36.336177 52.678294
2083 4 2.706683 35.884588 22.99025
2084 4 2.706683 35.884588 35.770458
2085 4 2.706683 35.884588 48.551441
2086 4 3.523978 36.569235 20.911303
2087 4 3.523978 36.569235 33.692287
2088 4 3.523978 36.569235 46.47327
2089 4 8.960684 35.015516 28.651287
2090 4 8.960684 35.015516 41.43227
2091 4 8.960684 35.015516 54.213254
2092 4 11.114594 35.791744 29.082752
2093 4 11.114594 35.791744 41.862959
2094 4 11.114594 35.791744 54.643943
2095 4 11.156606 35.748164 21.657831
2096 4 11.156606 35.748164 34.438814
2097 4 11.156606 35.748164 47.219798
2098 4 9.025648 35.465842 22.605346
2099 4 9.025648 35.465842 35.38633
2100 4 9.025648 35.465842 48.167313
2101 2 2.400538 28.551793 27.129519
2102 2 2.400538 28.551793 39.910503
2103 2 2.400538 28.551793 52.69071
2104 2 4.470033 28.146942 28.319928
2105 2 4.470033 28.146942 41.100911
2106 2 4.470033 28.146942 53.881119
2107 2 2.971205 30.512889 29.268219
2108 2 2.971205 30.512889 42.048427
2109 2 2.971205 30.512889 54.82941
2110 2 1.366179 29.8074 27.831038
2111 2 1.366179 29.8074 40.612021
2112 2 1.366179 29.8074 53.393005
2113 2 5.111499 29.551605 29.305468
2114 2 5.111499 29.551605 42.086452
2115 2 5.111499 29.551605 54.867435
2116 2 2.484951 29.928034 20.516311
2117 2 2.484951 29.928034 33.297295
2118 2 2.484951 29.928034 46.078278
2119 2 1.994807 30.554575 22.586722
2120 2 1.994807 30.554575 35.367705
2121 2 1.994807 30.554575 48.147913
2122 2 4.124599 28.673059 22.60457
2123 2 4.124599 28.673059 35.385554
2124 2 4.124599 28.673059 48.165761
2125 2 3.76516 28.797483 20.235393
2126 2 3.76516 28.797483 33.016377
2127 2 3.76516 28.797483 45.79736
2128 2 2.865007 30.0613 23.916813
2129 2 2.865007 30.0613 36.697021
2130 2 2.865007 30.0613 49.478004
2131 2 10.679688 29.002751 26.793504
2132 2 10.679688 29.002751 39.574488
2133 2 10.679688 29.002751 52.354695
2134 2 9.11434 28.174732 26.749272
2135 2 9.11434 28.174732 39.530255
2136 2 9.11434 28.174732 52.310463
2137 2 8.399353 29.382338 28.698624
2138 2 8.399353 29.382338 41.479607
2139 2 8.399353 29.382338 54.260591
2140 2 11.234018 30.228041 28.786314
2141 2 11.234018 30.228041 41.567297
2142 2 11.234018 30.228041 54.347505
2143 2 9.923078 30.540048 29.899896
2144 2 9.923078 30.540048 42.680104
2145 2 9.923078 30.540048 55.461088
2146 2 9.640272 31.396488 21.482451
2147 2 9.640272 31.396488 34.262658
2148 2 9.640272 31.396488 47.043642
2149 2 8.209908 28.135573 21.866579
2150 2 8.209908 28.135573 34.646786
2151 2 8.209908 28.135573 47.42777
2152 2 10.506971 28.55432 21.999278
2153 2 10.506971 28.55432 34.779485
2154 2 10.506971 28.55432 47.560469
2155 2 7.802233 29.614764 21.250422
2156 2 7.802233 29.614764 34.03063
2157 2 7.802233 29.614764 46.811613
2158 2 11.104869 30.801527 21.9403
2159 2 11.104869 30.801527 34.721284
2160 2 11.104869 30.801527 47.501491
2161 2 3.404165 34.10539 29.210794
2162 2 3.404165 34.10539 41.991002
2163 2 3.404165 34.10539 54.771985
2164 2 4.321823 35.452578 29.095944
2165 2 4.321823 35.452578 41.876927
2166 2 4.321823 35.452578 54.657911
2167 2 3.387049 37.089667 27.152024
2168 2 3.387049 37.089667 39.933007
2169 2 3.387049 37.089667 52.713991
2170 2 1.914673 34.569611 27.789909
2171 2 1.914673 34.569611 40.570116
2172 2 1.914673 34.569611 53.3511
2173 2 1.923231 36.28186 26.430329
2174 2 1.923231 36.28186 39.211312
2175 2 1.923231 36.28186 51.992296
2176 2 2.268276 35.12036 23.408523
2177 2 2.268276 35.12036 36.189506
2178 2 2.268276 35.12036 48.97049
2179 2 2.681787 36.847136 23.402315
2180 2 2.681787 36.847136 36.182522
2181 2 2.681787 36.847136 48.963506
2182 2 3.648459 37.519782 21.300863
2183 2 3.648459 37.519782 34.081847
2184 2 3.648459 37.519782 46.86283
2185 2 2.91441 34.67635 21.282239
2186 2 2.91441 34.67635 34.062446
2187 2 2.91441 34.67635 46.84343
2188 2 3.82351 36.285018 20.00026
2189 2 3.82351 36.285018 32.780468
2190 2 3.82351 36.285018 45.561451
2191 2 11.758783 36.51997 28.716472
2192 2 11.758783 36.51997 41.497456
2193 2 11.758783 36.51997 54.278439
2194 2 11.211844 35.494263 30.079156
2195 2 11.211844 35.494263 42.86014
2196 2 11.211844 35.494263 55.641123
2197 2 8.239084 34.839301 27.95132
2198 2 8.239084 34.839301 40.731528
2199 2 8.239084 34.839301 53.512511
2200 2 8.770073 34.734457 29.688044
2201 2 8.770073 34.734457 42.469028
2202 2 8.770073 34.734457 55.250011
2203 2 10.217553 35.780375 27.270754
2204 2 10.217553 35.780375 40.051738
2205 2 10.217553 35.780375 52.831945
2206 2 11.669701 36.263544 20.84379
2207 2 11.669701 36.263544 33.624773
2208 2 11.669701 36.263544 46.405757
2209 2 8.132108 35.845429 22.669755
2210 2 8.132108 35.845429 35.450739
2211 2 8.132108 35.845429 48.231722
2212 2 11.786402 35.362892 22.372541
2213 2 11.786402 35.362892 35.153525
2214 2 11.786402 35.362892 47.934508
2215 2 9.360579 34.7913 23.292896
2216 2 9.360579 34.7913 36.07388
2217 2 9.360579 34.7913 48.854087
2218 2 9.376917 36.240806 20.728939
2219 2 9.376917 36.240806 33.509923
2220 2 9.376917 36.240806 46.290906
2221 6 6.273062 26.237636 31.317678
2222 6 6.273062 26.237636 44.098661
2223 6 6.273062 26.237636 56.878869
2224 6 6.564037 26.079107 25.020308
2225 6 6.564037 26.079107 37.801291
2226 6 6.564037 26.079107 50.582275
2227 6 12.891559 26.478273 31.590835
2228 6 12.891559 26.478273 44.371819
2229 6 12.891559 26.478273 57.152802
2230 6 12.705616 26.663962 24.837944
2231 6 12.705616 26.663962 37.618928
2232 6 12.705616 26.663962 50.399911
2233 6 0.303811 32.778414 25.23216
2234 6 0.303811 32.778414 38.013144
2235 6 0.303811 32.778414 50.794127
2236 6 0.018283 32.66599 31.638948
2237 6 0.018283 32.66599 44.419932
2238 6 0.018283 32.66599 57.200915
2239 6 6.752314 32.273771 25.178615
2240 6 6.752314 32.273771 37.959599
2241 6 6.752314 32.273771 50.740582
2242 6 6.655452 32.58262 31.562123
2243 6 6.655452 32.58262 44.343106
2244 6 6.655452 32.58262 57.12409
2245 3 3.027999 26.752385 31.4496
2246 3 3.027999 26.752385 44.229808
2247 3 3.027999 26.752385 57.010791
2248 3 6.046274 26.10437 28.388993
2249 3 6.046274 26.10437 41.169977
2250 3 6.046274 26.10437 53.95096
2251 3 6.522024 29.188439 25.023412
2252 3 6.522024 29.188439 37.804395
2253 3 6.522024 29.188439 50.585379
2254 3 3.02372 26.542696 25.031948
2255 3 3.02372 26.542696 37.812156
2256 3 3.02372 26.542696 50.593139
2257 3 6.248166 26.415746 21.872787
2258 3 6.248166 26.415746 34.652994
2259 3 6.248166 26.415746 47.433978
2260 3 12.714563 26.4928 27.942784
2261 3 12.714563 26.4928 40.722992
2262 3 12.714563 26.4928 53.503975
2263 3 6.714581 29.283178 31.453481
2264 3 6.714581 29.283178 44.234464
2265 3 6.714581 29.283178 57.014672
2266 3 9.756584 25.994473 31.101945
2267 3 9.756584 25.994473 43.882929
2268 3 9.756584 25.994473 56.663912
2269 3 12.352401 26.257216 21.799065
2270 3 12.352401 26.257216 34.580049
2271 3 12.352401 26.257216 47.360256
2272 3 12.597473 29.607817 25.13283
2273 3 12.597473 29.607817 37.913814
2274 3 12.597473 29.607817 50.694797
2275 3 12.856938 29.503604 32.040149
2276 3 12.856938 29.503604 44.821132
2277 3 12.856938 29.503604 57.60134
2278 3 9.624712 26.223741 24.920978
2279 3 9.624712 26.223741 37.701185
2280 3 9.624712 26.223741 50.482169
2281 3 3.327921 31.820919 25.951527
2282 3 3.327921 31.820919 38.732511
2283 3 3.327921 31.820919 51.513494
2284 3 0.118646 32.381142 28.488323
2285 3 0.118646 32.381142 41.269307
2286 3 0.118646 32.381142 54.049514
2287 3 6.374203 32.152505 28.545749
2288 3 6.374203 32.152505 41.326732
2289 3 6.374203 32.152505 54.10694
2290 3 0.406508 35.794902 31.879513
2291 3 0.406508 35.794902 44.659721
2292 3 0.406508 35.794902 57.440704
2293 3 3.249342 32.206822 31.680077
2294 3 3.249342 32.206822 44.461061
2295 3 3.249342 32.206822 57.242044
2296 3 6.391708 32.539671 22.093176
2297 3 6.391708 32.539671 34.874159
2298 3 6.391708 32.539671 47.655143
2299 3 0.467582 32.707044 22.078431
2300 3 0.467582 32.707044 34.858639
2301 3 0.467582 32.707044 47.639622
2302 3 6.559758 35.393209 25.381155
2303 3 6.559758 35.393209 38.162139
2304 3 6.559758 35.393209 50.943122
2305 3 6.634446 35.491737 31.015031
2306 3 6.634446 35.491737 43.796015
2307 3 6.634446 35.491737 56.576222
2308 3 10.05884 32.660306 24.650148
2309 3 10.05884 32.660306 37.431132
2310 3 10.05884 32.660306 50.212115
2311 3 12.703282 35.680583 25.102566
2312 3 12.703282 35.680583 37.883549
2313 3 12.703282 35.680583 50.664533
2314 3 9.707959 32.807467 31.704134
2315 3 9.707959 32.807467 44.484341
2316 3 9.707959 32.807467 57.265325
2317 1 16.107058 29.635607 28.679223
2318 1 16.107058 29.635607 41.460207
2319 1 16.107058 29.635607 54.24119
2320 1 16.342016 29.237072 22.174657
2321 1 16.342016 29.237072 34.955641
2322 1 16.342016 29.237072 47.736624
2323 1 22.371952 29.485919 28.280351
2324 1 22.371952 29.485919 41.061335
2325 1 22.371952 29.485919 53.841542
2326 1 22.753952 29.336232 21.736984
2327 1 22.753952 29.336232 34.517968
2328 1 22.753952 29.336232 47.298175
2329 1 15.671764 35.258048 27.858198
2330 1 15.671764 35.258048 40.639182
2331 1 15.671764 35.258048 53.419389
2332 1 16.030814 35.648372 21.754833
2333 1 16.030814 35.648372 34.53504
2334 1 16.030814 35.648372 47.316024
2335 1 23.038314 35.533422 28.304408
2336 1 23.038314 35.533422 41.085391
2337 1 23.038314 35.533422 53.865599
2338 1 22.827085 35.832166 21.646966
2339 1 22.827085 35.832166 34.42795
2340 1 22.827085 35.832166 47.208933
2341 4 15.165671 29.302126 27.802325
2342 4 15.165671 29.302126 40.583309
2343 4 15.165671 29.302126 53.363516
2344 4 17.281069 29.077279 28.749065
2345 4 17.281069 29.077279 41.530048
2346 4 17.281069 29.077279 54.311032
2347 4 16.259936 29.410128 20.880263
2348 4 16.259936 29.410128 33.661246
2349 4 16.259936 29.410128 46.44223
2350 4 15.460146 29.81119 23.025171
2351 4 15.460146 29.81119 35.806154
2352 4 15.460146 29.81119 48.586362
2353 4 23.229314 30.151618 29.00903
2354 4 23.229314 30.151618 41.789238
2355 4 23.229314 30.151618 54.570221
2356 4 22.667205 28.884643 27.14504
2357 4 22.667205 28.884643 39.925247
2358 4 22.667205 28.884643 52.706231
2359 4 23.16863 30.586154 21.586437
2360 4 23.16863 30.586154 34.366645
2361 4 23.16863 30.586154 47.147628
2362 4 21.535595 28.987592 21.465379
2363 4 21.535595 28.987592 34.245586
2364 4 21.535595 28.987592 47.02657
2365 4 16.466108 35.017411 28.838307
2366 4 16.466108 35.017411 41.618514
2367 4 16.466108 35.017411 54.399498
2368 4 15.685379 36.336177 27.117103
2369 4 15.685379 36.336177 39.898087
2370 4 15.685379 36.336177 52.678294
2371 4 15.67332 35.884588 22.99025
2372 4 15.67332 35.884588 35.770458
2373 4 15.67332 35.884588 48.551441
2374 4 16.491004 36.569235 20.911303
2375 4 16.491004 36.569235 33.692287
2376 4 16.491004 36.569235 46.47327
2377 4 21.92771 35.015516 28.651287
2378 4 21.92771 35.015516 41.43227
2379 4 21.92771 35.015516 54.213254
2380 4 24.081231 35.791744 29.082752
2381 4 24.081231 35.791744 41.862959
2382 4 24.081231 35.791744 54.643943
2383 4 24.123632 35.748164 21.657831
2384 4 24.123632 35.748164 34.438814
2385 4 24.123632 35.748164 47.219798
2386 4 21.992285 35.465842 22.605346
2387 4 21.992285 35.465842 35.38633
2388 4 21.992285 35.465842 48.167313
2389 2 15.367175 28.551793 27.129519
2390 2 15.367175 28.551793 39.910503
2391 2 15.367175 28.551793 52.69071
2392 2 17.43667 28.146942 28.319928
2393 2 17.43667 28.146942 41.100911
2394 2 17.43667 28.146942 53.881119
2395 2 15.937842 30.512889 29.268219
2396 2 15.937842 30.512889 42.048427
2397 2 15.937842 30.512889 54.82941
2398 2 14.332816 29.8074 27.831038
2399 2 14.332816 29.8074 40.612021
2400 2 14.332816 29.8074 53.393005
2401 2 18.078136 29.551605 29.305468
2402 2 18.078136 29.551605 42.086452
2403 2 18.078136 29.551605 54.867435
2404 2 15.451588 29.928034 20.516311
2405 2 15.451588 29.928034 33.297295
2406 2 15.451588 29.928034 46.078278
2407 2 14.961444 30.554575 22.586722
2408 2 14.961444 30.554575 35.367705
2409 2 14.961444 30.554575 48.147913
2410 2 17.091625 28.673059 22.60457
2411 2 17.091625 28.673059 35.385554
2412 2 17.091625 28.673059 48.165761
2413 2 16.731797 28.797483 20.235393
2414 2 16.731797 28.797483 33.016377
2415 2 16.731797 28.797483 45.79736
2416 2 15.832033 30.0613 23.916813
2417 2 15.832033 30.0613 36.697021
2418 2 15.832033 30.0613 49.478004
2419 2 23.646714 29.002751 26.793504
2420 2 23.646714 29.002751 39.574488
2421 2 23.646714 29.002751 52.354695
2422 2 22.081366 28.174732 26.749272
2423 2 22.081366 28.174732 39.530255
2424 2 22.081366 28.174732 52.310463
2425 2 21.36599 29.382338 28.698624
2426 2 21.36599 29.382338 41.479607
2427 2 21.36599 29.382338 54.260591
2428 2 24.200655 30.228041 28.786314
2429 2 24.200655 30.228041 41.567297
2430 2 24.200655 30.228041 54.347505
2431 2 22.890104 30.540048 29.899896
2432 2 22.890104 30.540048 42.680104
2433 2 22.890104 30.540048 55.461088
2434 2 22.607298 31.396488 21.482451
2435 2 22.607298 31.396488 34.262658
2436 2 22.607298 31.396488 47.043642
2437 2 21.176545 28.135573 21.866579
2438 2 21.176545 28.135573 34.646786
2439 2 21.176545 28.135573 47.42777
2440 2 23.473997 28.55432 21.999278
2441 2 23.473997 28.55432 34.779485
2442 2 23.473997 28.55432 47.560469
2443 2 20.769259 29.614764 21.250422
2444 2 20.769259 29.614764 34.03063
2445 2 20.769259 29.614764 46.811613
2446 2 24.071506 30.801527 21.9403
2447 2 24.071506 30.801527 34.721284
2448 2 24.071506 30.801527 47.501491
2449 2 16.370802 34.10539 29.210794
2450 2 16.370802 34.10539 41.991002
2451 2 16.370802 34.10539 54.771985
2452 2 17.28846 35.452578 29.095944
2453 2 17.28846 35.452578 41.876927
2454 2 17.28846 35.452578 54.657911
2455 2 16.353686 37.089667 27.152024
2456 2 16.353686 37.089667 39.933007
2457 2 16.353686 37.089667 52.713991
2458 2 14.881699 34.569611 27.789909
2459 2 14.881699 34.569611 40.570116
2460 2 14.881699 34.569611 53.3511
2461 2 14.889868 36.28186 26.430329
2462 2 14.889868 36.28186 39.211312
2463 2 14.889868 36.28186 51.992296
2464 2 15.234913 35.12036 23.408523
2465 2 15.234913 35.12036 36.189506
2466 2 15.234913 35.12036 48.97049
2467 2 15.648813 36.847136 23.402315
2468 2 15.648813 36.847136 36.182522
2469 2 15.648813 36.847136 48.963506
2470 2 16.615096 37.519782 21.300863
2471 2 16.615096 37.519782 34.081847
2472 2 16.615096 37.519782 46.86283
2473 2 15.881436 34.67635 21.282239
2474 2 15.881436 34.67635 34.062446
2475 2 15.881436 34.67635 46.84343
2476 2 16.790536 36.285018 20.00026
2477 2 16.790536 36.285018 32.780468
2478 2 16.790536 36.285018 45.561451
2479 2 24.725809 36.51997 28.716472
2480 2 24.725809 36.51997 41.497456
2481 2 24.725809 36.51997 54.278439
2482 2 24.17887 35.494263 30.079156
2483 2 24.17887 35.494263 42.86014
2484 2 24.17887 35.494263 55.641123
2485 2 21.205721 34.839301 27.95132
2486 2 21.205721 34.839301 40.731528
2487 2 21.205721 34.839301 53.512511
2488 2 21.737099 34.734457 29.688044
2489 2 21.737099 34.734457 42.469028
2490 2 21.737099 34.734457 55.250011
2491 2 23.18419 35.780375 27.270754
2492 2 23.18419 35.780375 40.051738
2493 2 23.18419 35.780375 52.831945
2494 2 24.636727 36.263544 20.84379
2495 2 24.636727 36.263544 33.624773
2496 2 24.636727 36.263544 46.405757
2497 2 21.099134 35.845429 22.669755
2498 2 21.099134 35.845429 35.450739
2499 2 21.099134 35.845429 48.231722
2500 2 24.753428 35.362892 22.372541
2501 2 24.753428 35.362892 35.153525
2502 2 24.753428 35.362892 47.934508
2503 2 22.327605 34.7913 23.292896
2504 2 22.327605 34.7913 36.07388
2505 2 22.327605 34.7913 48.854087
2506 2 22.343554 36.240806 20.728939
2507 2 22.343554 36.240806 33.509923
2508 2 22.343554 36.240806 46.290906
2509 6 19.239699 26.237636 31.317678
2510 6 19.239699 26.237636 44.098661
2511 6 19.239699 26.237636 56.878869
2512 6 19.531063 26.079107 25.020308
2513 6 19.531063 26.079107 37.801291
2514 6 19.531063 26.079107 50.582275
2515 6 25.858196 26.478273 31.590835
2516 6 25.858196 26.478273 44.371819
2517 6 25.858196 26.478273 57.152802
2518 6 25.672642 26.663962 24.837944
2519 6 25.672642 26.663962 37.618928
2520 6 25.672642 26.663962 50.399911
2521 6 13.270448 32.778414 25.23216
2522 6 13.270448 32.778414 38.013144
2523 6 13.270448 32.778414 50.794127
2524 6 12.98492 32.66599 31.638948
2525 6 12.98492 32.66599 44.419932
2526 6 12.98492 32.66599 57.200915
2527 6 19.718951 32.273771 25.178615
2528 6 19.718951 32.273771 37.959599
2529 6 19.718951 32.273771 50.740582
2530 6 19.622478 32.58262 31.562123
2531 6 19.622478 32.58262 44.343106
2532 6 19.622478 32.58262 57.12409
2533 3 15.994636 26.752385 31.4496
2534 3 15.994636 26.752385 44.229808
2535 3 15.994636 26.752385 57.010791
2536 3 19.012911 26.10437 28.388993
2537 3 19.012911 26.10437 41.169977
2538 3 19.012911 26.10437 53.95096
2539 3 19.488661 29.188439 25.023412
2540 3 19.488661 29.188439 37.804395
2541 3 19.488661 29.188439 50.585379
2542 3 15.990357 26.542696 25.031948
2543 3 15.990357 26.542696 37.812156
2544 3 15.990357 26.542696 50.593139
2545 3 19.215192 26.415746 21.872787
2546 3 19.215192 26.415746 34.652994
2547 3 19.215192 26.415746 47.433978
2548 3 25.6812 26.4928 27.942784
2549 3 25.6812 26.4928 40.722992
2550 3 25.6812 26.4928 53.503975
2551 3 19.681218 29.283178 31.453481
2552 3 19.681218 29.283178 44.234464
2553 3 19.681218 29.283178 57.014672
2554 3 22.72361 25.994473 31.101945
2555 3 22.72361 25.994473 43.882929
2556 3 22.72361 25.994473 56.663912
2557 3 25.319038 26.257216 21.799065
2558 3 25.319038 26.257216 34.580049
2559 3 25.319038 26.257216 47.360256
2560 3 25.56411 29.607817 25.13283
2561 3 25.56411 29.607817 37.913814
2562 3 25.56411 29.607817 50.694797
2563 3 25.823964 29.503604 32.040149
2564 3 25.823964 29.503604 44.821132
2565 3 25.823964 29.503604 57.60134
2566 3 22.591349 26.223741 24.920978
2567 3 22.591349 26.223741 37.701185
2568 3 22.591349 26.223741 50.482169
2569 3 16.294558 31.820919 25.951527
2570 3 16.294558 31.820919 38.732511
2571 3 16.294558 31.820919 51.513494
2572 3 13.085283 32.381142 28.488323
2573 3 13.085283 32.381142 41.269307
2574 3 13.085283 32.381142 54.049514
2575 3 19.34084 32.152505 28.545749
2576 3 19.34084 32.152505 41.326732
2577 3 19.34084 32.152505 54.10694
2578 3 13.373145 35.794902 31.879513
2579 3 13.373145 35.794902 44.659721
2580 3 13.373145 35.794902 57.440704
2581 3 16.215979 32.206822 31.680077
2582 3 16.215979 32.206822 44.461061
2583 3 16.215979 32.206822 57.242044
2584 3 19.358345 32.539671 22.093176
2585 3 19.358345 32.539671 34.874159
2586 3 19.358345 32.539671 47.655143
2587 3 13.434608 32.707044 22.078431
2588 3 13.434608 32.707044 34.858639
2589 3 13.434608 32.707044 47.639622
2590 3 19.526784 35.393209 25.381155
2591 3 19.526784 35.393209 38.162139
2592 3 19.526784 35.393209 50.943122
2593 3 19.601472 35.491737 31.015031
2594 3 19.601472 35.491737 43.796015
2595 3 19.601472 35.491737 56.576222
2596 3 23.025477 32.660306 24.650148
2597 3 23.025477 32.660306 37.431132
2598 3 23.025477 32.660306 50.212115
2599 3 25.670308 35.680583 25.102566
2600 3 25.670308 35.680583 37.883549
2601 3 25.670308 35.680583 50.664533
2602 3 22.674596 32.807467 31.704134
2603 3 22.674596 32.807467 44.484341
2604 3 22.674596 32.807467 57.265325
2605 1 29.074084 29.635607 28.679223
2606 1 29.074084 29.635607 41.460207
2607 1 29.074084 29.635607 54.24119
2608 1 29.308653 29.237072 22.174657
2609 1 29.308653 29.237072 34.955641
2610 1 29.308653 29.237072 47.736624
2611 1 35.338589 29.485919 28.280351
2612 1 35.338589 29.485919 41.061335
2613 1 35.338589 29.485919 53.841542
2614 1 35.720978 29.336232 21.736984
2615 1 35.720978 29.336232 34.517968
2616 1 35.720978 29.336232 47.298175
2617 1 28.63879 35.258048 27.858198
2618 1 28.63879 35.258048 40.639182
2619 1 28.63879 35.258048 53.419389
2620 1 28.99784 35.648372 21.754833
2621 1 28.99784 35.648372 34.53504
2622 1 28.99784 35.648372 47.316024
2623 1 36.004951 35.533422 28.304408
2624 1 36.004951 35.533422 41.085391
2625 1 36.004951 35.533422 53.865599
2626 1 35.793722 35.832166 21.646966
2627 1 35.793722 35.832166 34.42795
2628 1 35.793722 35.832166 47.208933
2629 4 28.132697 29.302126 27.802325
2630 4 28.132697 29.302126 40.583309
2631 4 28.132697 29.302126 53.363516
2632 4 30.247706 29.077279 28.749065
2633 4 30.247706 29.077279 41.530048
2634 4 30.247706 29.077279 54.311032
2635 4 29.226573 29.410128 20.880263
2636 4 29.226573 29.410128 33.661246
2637 4 29.226573 29.410128 46.44223
2638 4 28.426783 29.81119 23.025171
2639 4 28.426783 29.81119 35.806154
2640 4 28.426783 29.81119 48.586362
2641 4 36.195951 30.151618 29.00903
2642 4 36.195951 30.151618 41.789238
2643 4 36.195951 30.151618 54.570221
2644 4 35.633842 28.884643 27.14504
2645 4 35.633842 28.884643 39.925247
2646 4 35.633842 28.884643 52.706231
2647 4 36.135267 30.586154 21.586437
2648 4 36.135267 30.586154 34.366645
2649 4 36.135267 30.586154 47.147628
2650 4 34.502232 28.987592 21.465379
2651 4 34.502232 28.987592 34.245586
2652 4 34.502232 28.987592 47.02657
2653 4 29.432745 35.017411 28.838307
2654 4 29.432745 35.017411 41.618514
2655 4 29.432745 35.017411 54.399498
2656 4 28.652016 36.336177 27.117103
2657 4 28.652016 36.336177 39.898087
2658 4 28.652016 36.336177 52.678294
2659 4 28.639957 35.884588 22.99025
2660 4 28.639957 35.884588 35.770458
2661 4 28.639957 35.884588 48.551441
2662 4 29.457641 36.569235 20.911303
2663 4 29.457641 36.569235 33.692287
2664 4 29.457641 36.569235 46.47327
2665 4 34.894347 35.015516 28.651287
2666 4 34.894347 35.015516 41.43227
2667 4 34.894347 35.015516 54.213254
2668 4 37.048257 35.791744 29.082752
2669 4 37.048257 35.791744 41.862959
2670 4 37.048257 35.791744 54.643943
2671 4 37.090269 35.748164 21.657831
2672 4 37.090269 35.748164 34.438814
2673 4 37.090269 35.748164 47.219798
2674 4 34.959311 35.465842 22.605346
2675 4 34.959311 35.465842 35.38633
2676 4 34.959311 35.465842 48.167313
2677 2 28.333812 28.551793 27.129519
2678 2 28.333812 28.551793 39.910503
2679 2 28.333812 28.551793 52.69071
2680 2 30.403696 28.146942 28.319928
2681 2 30.403696 28.146942 41.100911
2682 2 30.403696 28.146942 53.881119
2683 2 28.904868 30.512889 29.268219
2684 2 28.904868 30.512889 42.048427
2685 2 28.904868 30.512889 54.82941
2686 2 27.299453 29.8074 27.831038
2687 2 27.299453 29.8074 40.612021
2688 2 27.299453 29.8074 53.393005
2689 2 31.044773 29.551605 29.305468
2690 2 31.044773 29.551605 42.086452
2691 2 31.044773 29.551605 54.867435
2692 2 28.418225 29.928034 20.516311
2693 2 28.418225 29.928034 33.297295
2694 2 28.418225 29.928034 46.078278
2695 2 27.928081 30.554575 22.586722
2696 2 27.928081 30.554575 35.367705
2697 2 27.928081 30.554575 48.147913
2698 2 30.058262 28.673059 22.60457
2699 2 30.058262 28.673059 35.385554
2700 2 30.058262 28.673059 48.165761
2701 2 29.698823 28.797483 20.235393
2702 2 29.698823 28.797483 33.016377
2703 2 29.698823 28.797483 45.79736
2704 2 28.79867 30.0613 23.916813
2705 2 28.79867 30.0613 36.697021
2706 2 28.79867 30.0613 49.478004
2707 2 36.613351 29.002751 26.793504
2708 2 36.613351 29.002751 39.574488
2709 2 36.613351 29.002751 52.354695
2710 2 35.048003 28.174732 26.749272
2711 2 35.048003 28.174732 39.530255
2712 2 35.048003 28.174732 52.310463
2713 2 34.333016 29.382338 28.698624
2714 2 34.333016 29.382338 41.479607
2715 2 34.333016 29.382338 54.260591
2716 2 37.167681 30.228041 28.786314
2717 2 37.167681 30.228041 41.567297
2718 2 37.167681 30.228041 54.347505
2719 2 35.856741 30.540048 29.899896
2720 2 35.856741 30.540048 42.680104
2721 2 35.856741 30.540048 55.461088
2722 2 35.573935 31.396488 21.482451
2723 2 35.573935 31.396488 34.262658
2724 2 35.573935 31.396488 47.043642
2725 2 34.143182 28.135573 21.866579
2726 2 34.143182 28.135573 34.646786
2727 2 34.143182 28.135573 47.42777
2728 2 36.440634 28.55432 21.999278
2729 2 36.440634 28.55432 34.779485
2730 2 36.440634 28.55432 47.560469
2731 2 33.735896 29.614764 21.250422
2732 2 33.735896 29.614764 34.03063
2733 2 33.735896 29.614764 46.811613
2734 2 37.038143 30.801527 21.9403
2735 2 37.038143 30.801527 34.721284
2736 2 37.038143 30.801527 47.501491
2737 2 29.337439 34.10539 29.210794
2738 2 29.337439 34.10539 41.991002
2739 2 29.337439 34.10539 54.771985
2740 2 30.255486 35.452578 29.095944
2741 2 30.255486 35.452578 41.876927
2742 2 30.255486 35.452578 54.657911
2743 2 29.320712 37.089667 27.152024
2744 2 29.320712 37.089667 39.933007
2745 2 29.320712 37.089667 52.713991
2746 2 27.848336 34.569611 27.789909
2747 2 27.848336 34.569611 40.570116
2748 2 27.848336 34.569611 53.3511
2749 2 27.856505 36.28186 26.430329
2750 2 27.856505 36.28186 39.211312
2751 2 27.856505 36.28186 51.992296
2752 2 28.20155 35.12036 23.408523
2753 2 28.20155 35.12036 36.189506
2754 2 28.20155 35.12036 48.97049
2755 2 28.61545 36.847136 23.402315
2756 2 28.61545 36.847136 36.182522
2757 2 28.61545 36.847136 48.963506
2758 2 29.581733 37.519782 21.300863
2759 2 29.581733 37.519782 34.081847
2760 2 29.581733 37.519782 46.86283
2761 2 28.848073 34.67635 21.282239
2762 2 28.848073 34.67635 34.062446
2763 2 28.848073 34.67635 46.84343
2764 2 29.757173 36.285018 20.00026
2765 2 29.757173 36.285018 32.780468
2766 2 29.757173 36.285018 45.561451
2767 2 37.692446 36.51997 28.716472
2768 2 37.692446 36.51997 41.497456
2769 2 37.692446 36.51997 54.278439
2770 2 37.145507 35.494263 30.079156
2771 2 37.145507 35.494263 42.86014
2772 2 37.145507 35.494263 55.641123
2773 2 34.172747 34.839301 27.95132
2774 2 34.172747 34.839301 40.731528
2775 2 34.172747 34.839301 53.512511
2776 2 34.703736 34.734457 29.688044
2777 2 34.703736 34.734457 42.469028
2778 2 34.703736 34.734457 55.250011
2779 2 36.150827 35.780375 27.270754
2780 2 36.150827 35.780375 40.051738
2781 2 36.150827 35.780375 52.831945
2782 2 37.603364 36.263544 20.84379
2783 2 37.603364 36.263544 33.624773
2784 2 37.603364 36.263544 46.405757
2785 2 34.065771 35.845429 22.669755
2786 2 34.065771 35.845429 35.450739
2787 2 34.065771 35.845429 48.231722
2788 2 37.720065 35.362892 22.372541
2789 2 37.720065 35.362892 35.153525
2790 2 37.720065 35.362892 47.934508
2791 2 35.294242 34.7913 23.292896
2792 2 35.294242 34.7913 36.07388
2793 2 35.294242 34.7913 48.854087
2794 2 35.310191 36.240806 20.728939
2795 2 35.310191 36.240806 33.509923
2796 2 35.310191 36.240806 46.290906
2797 6 32.206336 26.237636 31.317678
2798 6 32.206336 26.237636 44.098661
2799 6 32.206336 26.237636 56.878869
2800 6 32.4977 26.079107 25.020308
2801 6 32.4977 26.079107 37.801291
2802 6 32.4977 26.079107 50.582275
2803 6 38.824833 26.478273 31.590835
2804 6 38.824833 26.478273 44.371819
2805 6 38.824833 26.478273 57.152802
2806 6 38.639279 26.663962 24.837944
2807 6 38.639279 26.663962 37.618928
2808 6 38.639279 26.663962 50.399911
2809 6 26.237085 32.778414 25.23216
2810 6 26.237085 32.778414 38.013144
2811 6 26.237085 32.778414 50.794127
2812 6 25.951946 32.66599 31.638948
2813 6 25.951946 32.66599 44.419932
2814 6 25.951946 32.66599 57.200915
2815 6 32.685977 32.273771 25.178615
2816 6 32.685977 32.273771 37.959599
2817 6 32.685977 32.273771 50.740582
2818 6 32.589115 32.58262 31.562123
2819 6 32.589115 32.58262 44.343106
2820 6 32.589115 32.58262 57.12409
2821 3 28.961273 26.752385 31.4496
2822 3 28.961273 26.752385 44.229808
2823 3 28.961273 26.752385 57.010791
2824 3 31.979548 26.10437 28.388993
2825 3 31.979548 26.10437 41.169977
2826 3 31.979548 26.10437 53.95096
2827 3 32.455298 29.188439 25.023412
2828 3 32.455298 29.188439 37.804395
2829 3 32.455298 29.188439 50.585379
2830 3 28.956994 26.542696 25.031948
2831 3 28.956994 26.542696 37.812156
2832 3 28.956994 26.542696 50.593139
2833 3 32.181829 26.415746 21.872787
2834 3 32.181829 26.415746 34.652994
2835 3 32.181829 26.415746 47.433978
2836 3 38.648226 26.4928 27.942784
2837 3 38.648226 26.4928 40.722992
2838 3 38.648226 26.4928 53.503975
2839 3 32.647855 29.283178 31.453481
2840 3 32.647855 29.283178 44.234464
2841 3 32.647855 29.283178 57.014672
2842 3 35.690247 25.994473 31.101945
2843 3 35.690247 25.994473 43.882929
2844 3 35.690247 25.994473 56.663912
2845 3 38.285675 26.257216 21.799065
2846 3 38.285675 26.257216 34.580049
2847 3 38.285675 26.257216 47.360256
2848 3 38.530747 29.607817 25.13283
2849 3 38.530747 29.607817 37.913814
2850 3 38.530747 29.607817 50.694797
2851 3 38.790601 29.503604 32.040149
2852 3 38.790601 29.503604 44.821132
2853 3 38.790601 29.503604 57.60134
2854 3 35.557986 26.223741 24.920978
2855 3 35.557986 26.223741 37.701185
2856 3 35.557986 26.223741 50.482169
2857 3 29.261195 31.820919 25.951527
2858 3 29.261195 31.820919 38.732511
2859 3 29.261195 31.820919 51.513494
2860 3 26.05192 32.381142 28.488323
2861 3 26.05192 32.381142 41.269307
2862 3 26.05192 32.381142 54.049514
2863 3 32.307477 32.152505 28.545749
2864 3 32.307477 32.152505 41.326732
2865 3 32.307477 32.152505 54.10694
2866 3 26.339782 35.794902 31.879513
2867 3 26.339782 35.794902 44.659721
2868 3 26.339782 35.794902 57.440704
2869 3 29.182616 32.206822 31.680077
2870 3 29.182616 32.206822 44.461061
2871 3 29.182616 32.206822 57.242044
2872 3 32.325371 32.539671 22.093176
2873 3 32.325371 32.539671 34.874159
2874 3 32.325371 32.539671 47.655143
2875 3 26.401245 32.707044 22.078431
2876 3 26.401245 32.707044 34.858639
2877 3 26.401245 32.707044 47.639622
2878 3 32.493421 35.393209 25.381155
2879 3 32.493421 35.393209 38.162139
2880 3 32.493421 35.393209 50.943122
2881 3 32.568109 35.491737 31.015031
2882 3 32.568109 35.491737 43.796015
2883 3 32.568109 35.491737 56.576222
2884 3 35.992503 32.660306 24.650148
2885 3 35.992503 32.660306 37.431132
2886 3 35.992503 32.660306 50.212115
2887 3 38.636945 35.680583 25.102566
2888 3 38.636945 35.680583 37.883549
2889 3 38.636945 35.680583 50.664533
2890 3 35.641233 32.807467 31.704134
2891 3 35.641233 32.807467 44.484341
2892 3 35.641233 32.807467 57.265325
2893 1 3.140421 42.267467 28.679223
2894 1 3.140421 42.267467 41.460207
2895 1 3.140421 42.267467 54.24119
2896 1 3.375379 41.868932 22.174657
2897 1 3.375379 41.868932 34.955641
2898 1 3.375379 41.868932 47.736624
2899 1 9.404926 42.117779 28.280351
2900 1 9.404926 42.117779 41.061335
2901 1 9.404926 42.117779 53.841542
2902 1 9.787315 41.968092 21.736984
2903 1 9.787315 41.968092 34.517968
2904 1 9.787315 41.968092 47.298175
2905 1 2.705127 47.889908 27.858198
2906 1 2.705127 47.889908 40.639182
2907 1 2.705127 47.889908 53.419389
2908 1 3.064177 48.280232 21.754833
2909 1 3.064177 48.280232 34.53504
2910 1 3.064177 48.280232 47.316024
2911 1 10.071288 48.165282 28.304408
2912 1 10.071288 48.165282 41.085391
2913 1 10.071288 48.165282 53.865599
2914 1 9.860448 48.464026 21.646966
2915 1 9.860448 48.464026 34.42795
2916 1 9.860448 48.464026 47.208933
2917 4 2.199034 41.933986 27.802325
2918 4 2.199034 41.933986 40.583309
2919 4 2.199034 41.933986 53.363516
2920 4 4.314432 41.709139 28.749065
2921 4 4.314432 41.709139 41.530048
2922 4 4.314432 41.709139 54.311032
2923 4 3.293299 42.041988 20.880263
2924 4 3.293299 42.041988 33.661246
2925 4 3.293299 42.041988 46.44223
2926 4 2.493509 42.44305 23.025171
2927 4 2.493509 42.44305 35.806154
2928 4 2.493509 42.44305 48.586362
2929 4 10.262677 42.783478 29.00903
2930 4 10.262677 42.783478 41.789238
2931 4 10.262677 42.783478 54.570221
2932 4 9.700568 41.516503 27.14504
2933 4 9.700568 41.516503 39.925247
2934 4 9.700568 41.516503 52.706231
2935 4 10.201993 43.218014 21.586437
2936 4 10.201993 43.218014 34.366645
2937 4 10.201993 43.218014 47.147628
2938 4 8.568569 41.619452 21.465379
2939 4 8.568569 41.619452 34.245586
2940 4 8.568569 41.619452 47.02657
2941 4 3.499471 47.649271 28.838307
2942 4 3.499471 47.649271 41.618514
2943 4 3.499471 47.649271 54.399498
2944 4 2.718353 48.968037 27.117103
2945 4 2.718353 48.968037 39.898087
2946 4 2.718353 48.968037 52.678294
2947 4 2.706683 48.516448 22.99025
2948 4 2.706683 48.516448 35.770458
2949 4 2.706683 48.516448 48.551441
2950 4 3.523978 49.201095 20.911303
2951 4 3.523978 49.201095 33.692287
2952 4 3.523978 49.201095 46.47327
2953 4 8.960684 47.647376 28.651287
2954 4 8.960684 47.647376 41.43227
2955 4 8.960684 47.647376 54.213254
2956 4 11.114594 48.423604 29.082752
2957 4 11.114594 48.423604 41.862959
2958 4 11.114594 48.423604 54.643943
2959 4 11.156606 48.380024 21.657831
2960 4 11.156606 48.380024 34.438814
2961 4 11.156606 48.380024 47.219798
2962 4 9.025648 48.097702 22.605346
2963 4 9.025648 48.097702 35.38633
2964 4 9.025648 48.097702 48.167313
2965 2 2.400538 41.183653 27.129519
2966 2 2.400538 41.183653 39.910503
2967 2 2.400538 41.183653 52.69071
2968 2 4.470033 40.778802 28.319928
2969 2 4.470033 40.778802 41.100911
2970 2 4.470033 40.778802 53.881119
2971 2 2.971205 43.144749 29.268219
2972 2 2.971205 43.144749 42.048427
2973 2 2.971205 43.144749 54.82941
2974 2 1.366179 42.43926 27.831038
2975 2 1.366179 42.43926 40.612021
2976 2 1.366179 42.43926 53.393005
2977 2 5.111499 42.183465 29.305468
2978 2 5.111499 42.183465 42.086452
2979 2 5.111499 42.183465 54.867435
2980 2 2.484951 42.559894 20.516311
2981 2 2.484951 42.559894 33.297295
2982 2 2.484951 42.559894 46.078278
2983 2 1.994807 43.186435 22.586722
2984 2 1.994807 43.186435 35.367705
2985 2 1.994807 43.186435 48.147913
2986 2 4.124599 41.304919 22.60457
2987 2 4.124599 41.304919 35.385554
2988 2 4.124599 41.304919 48.165761
2989 2 3.76516 41.429343 20.235393
2990 2 3.76516 41.429343 33.016377
2991 2 3.76516 41.429343 45.79736
2992 2 2.865007 42.69316 23.916813
2993 2 2.865007 42.69316 36.697021
2994 2 2.865007 42.69316 49.478004
2995 2 10.679688 41.634611 26.793504
2996 2 10.679688 41.634611 39.574488
2997 2 10.679688 41.634611 52.354695
2998 2 9.11434 40.806592 26.749272
2999 2 9.11434 40.806592 39.530255
3000 2 9.11434 40.806592 52.310463
3001 2 8.399353 42.014198 28.698624
3002 2 8.399353 42.014198 41.479607
3003 2 8.399353 42.014198 54.260591
3004 2 11.234018 42.859901 28.786314
3005 2 11.234018 42.859901 41.567297
3006 2 11.234018 42.859901 54.347505
3007 2 9.923078 43.171908 29.899896
3008 2 9.923078 43.171908 42.680104
3009 2 9.923078 43.171908 55.461088
3010 2 9.640272 44.028348 21.482451
3011 2 9.640272 44.028348 34.262658
3012 2 9.640272 44.028348 47.043642
3013 2 8.209908 40.767433 21.866579
3014 2 8.209908 40.767433 34.646786
3015 2 8.209908 40.767433 47.42777
3016 2 10.506971 41.18618 21.999278
3017 2 10.506971 41.18618 34.779485
3018 2 10.506971 41.18618 47.560469
3019 2 7.802233 42.246624 21.250422
3020 2 7.802233 42.246624 34.03063
3021 2 7.802233 42.246624 46.811613
3022 2 11.104869 43.433387 21.9403
3023 2 11.104869 43.433387 34.721284
3024 2 11.104869 43.433387 47.501491
3025 2 3.404165 46.73725 29.210794
3026 2 3.404165 46.73725 41.991002
3027 2 3.404165 46.73725 54.771985
3028 2 4.321823 48.084438 29.095944
3029 2 4.321823 48.084438 41.876927
3030 2 4.321823 48.084438 54.657911
3031 2 3.387049 49.721527 27.152024
3032 2 3.387049 49.721527 39.933007
3033 2 3.387049 49.721527 52.713991
3034 2 1.914673 47.201471 27.789909
3035 2 1.914673 47.201471 40.570116
3036 2 1.914673 47.201471 53.3511
3037 2 1.923231 48.91372 26.430329
3038 2 1.923231 48.91372 39.211312
3039 2 1.923231 48.91372 51.992296
3040 2 2.268276 47.75222 23.408523
3041 2 2.268276 47.75222 36.189506
3042 2 2.268276 47.75222 48.97049
3043 2 2.681787 49.478996 23.402315
3044 2 2.681787 49.478996 36.182522
3045 2 2.681787 49.478996 48.963506
3046 2 3.648459 50.151642 21.300863
3047 2 3.648459 50.151642 34.081847
3048 2 3.648459 50.151642 46.86283
3049 2 2.91441 47.30821 21.282239
3050 2 2.91441 47.30821 34.062446
3051 2 2.91441 47.30821 46.84343
3052 2 3.82351 48.916878 20.00026
3053 2 3.82351 48.916878 32.780468
3054 2 3.82351 48.916878 45.561451
3055 2 11.758783 49.15183 28.716472
3056 2 11.758783 49.15183 41.497456
3057 2 11.758783 49.15183 54.278439
3058 2 11.211844 48.126123 30.079156
3059 2 11.211844 48.126123 42.86014
3060 2 11.211844 48.126123 55.641123
3061 2 8.239084 47.471161 27.95132
3062 2 8.239084 47.471161 40.731528
3063 2 8.239084 47.471161 53.512511
3064 2 8.770073 47.366317 29.688044
3065 2 8.770073 47.366317 42.469028
3066 2 8.770073 47.366317 55.250011
3067 2 10.217553 48.412235 27.270754
3068 2 10.217553 48.412235 40.051738
3069 2 10.217553 48.412235 52.831945
3070 2 11.669701 48.895404 20.84379
3071 2 11.669701 48.895404 33.624773
3072 2 11.669701 48.895404 46.405757
3073 2 8.132108 48.477289 22.669755
3074 2 8.132108 48.477289 35.450739
3075 2 8.132108 48.477289 48.231722
3076 2 11.786402 47.994752 22.372541
3077 2 11.786402 47.994752 35.153525
3078 2 11.786402 47.994752 47.934508
3079 2 9.360579 47.42316 23.292896
3080 2 9.360579 47.42316 36.07388
3081 2 9.360579 47.42316 48.854087
3082 2 9.376917 48.872666 20.728939
3083 2 9.376917 48.872666 33.509923
3084 2 9.376917 48.872666 46.290906
3085 6 6.273062 38.869496 31.317678
3086 6 6.273062 38.869496 44.098661
3087 6 6.273062 38.869496 56.878869
3088 6 6.564037 38.710967 25.020308
3089 6 6.564037 38.710967 37.801291
3090 6 6.564037 38.710967 50.582275
3091 6 12.891559 39.110133 31.590835
3092 6 12.891559 39.110133 44.371819
3093 6 12.891559 39.110133 57.152802
3094 6 12.705616 39.295822 24.837944
3095 6 12.705616 39.295822 37.618928
3096 6 12.705616 39.295822 50.399911
3097 6 0.303811 45.410274 25.23216
3098 6 0.303811 45.410274 38.013144
3099 6 0.303811 45.410274 50.794127
3100 6 0.018283 45.29785 31.638948
3101 6 0.018283 45.29785 44.419932
3102 6 0.018283 45.29785 57.200915
3103 6 6.752314 44.905631 25.178615
3104 6 6.752314 44.905631 37.959599
3105 6 6.752314 44.905631 50.740582
3106 6 6.655452 45.21448 31.562123
3107 6 6.655452 45.21448 44.343106
3108 6 6.655452 45.21448 57.12409
3109 3 3.027999 39.384245 31.4496
3110 3 3.027999 39.384245 44.229808
3111 3 3.027999 39.384245 57.010791
3112 3 6.046274 38.73623 28.388993
3113 3 6.046274 38.73623 41.169977
3114 3 6.046274 38.73623 53.95096
3115 3 6.522024 41.820299 25.023412
3116 3 6.522024 41.820299 37.804395
3117 3 6.522024 41.820299 50.585379
3118 3 3.02372 39.174556 25.031948
3119 3 3.02372 39.174556 37.812156
3120 3 3.02372 39.174556 50.593139
3121 3 6.248166 39.047606 21.872787
3122 3 6.248166 39.047606 34.652994
3123 3 6.248166 39.047606 47.433978
3124 3 12.714563 39.12466 27.942784
3125 3 12.714563 39.12466 40.722992
3126 3 12.714563 39.12466 53.503975
3127 3 6.714581 41.915038 31.453481
3128 3 6.714581 41.915038 44.234464
3129 3 6.714581 41.915038 57.014672
3130 3 9.756584 38.626333 31.101945
3131 3 9.756584 38.626333 43.882929
3132 3 9.756584 38.626333 56.663912
3133 3 12.352401 38.889076 21.799065
3134 3 12.352401 38.889076 34.580049
3135 3 12.352401 38.889076 47.360256
3136 3 12.597473 42.239677 25.13283
3137 3 12.597473 42.239677 37.913814
3138 3 12.597473 42.239677 50.694797
3139 3 12.856938 42.135464 32.040149
3140 3 12.856938 42.135464 44.821132
3141 3 12.856938 42.135464 57.60134
3142 3 9.624712 38.855601 24.920978
3143 3 9.624712 38.855601 37.701185
3144 3 9.624712 38.855601 50.482169
3145 3 3.327921 44.452779 25.951527
3146 3 3.327921 44.452779 38.732511
3147 3 3.327921 44.452779 51.513494
3148 3 0.118646 45.013002 28.488323
3149 3 0.118646 45.013002 41.269307
3150 3 0.118646 45.013002 54.049514
3151 3 6.374203 44.784365 28.545749
3152 3 6.374203 44.784365 41.326732
3153 3 6.374203 44.784365 54.10694
3154 3 0.406508 48.426762 31.879513
3155 3 0.406508 48.426762 44.659721
3156 3 0.406508 48.426762 57.440704
3157 3 3.249342 44.838682 31.680077
3158 3 3.249342 44.838682 44.461061
3159 3 3.249342 44.838682 57.242044
3160 3 6.391708 45.171531 22.093176
3161 3 6.391708 45.171531 34.874159
3162 3 6.391708 45.171531 47.655143
3163 3 0.467582 45.338904 22.078431
3164 3 0.467582 45.338904 34.858639
3165 3 0.467582 45.338904 47.639622
3166 3 6.559758 48.025069 25.381155
3167 3 6.559758 48.025069 38.162139
3168 3 6.559758 48.025069 50.943122
3169 3 6.634446 48.123597 31.015031
3170 3 6.634446 48.123597 43.796015
3171 3 6.634446 48.123597 56.576222
3172 3 10.05884 45.292166 24.650148
3173 3 10.05884 45.292166 37.431132
3174 3 10.05884 45.292166 50.212115
3175 3 12.703282 48.312443 25.102566
3176 3 12.703282 48.312443 37.883549
3177 3 12.703282 48.312443 50.664533
3178 3 9.707959 45.439327 31.704134
3179 3 9.707959 45.439327 44.484341
3180 3 9.707959 45.439327 57.265325
3181 1 16.107058 42.267467 28.679223
3182 1 16.107058 42.267467 41.460207
3183 1 16.107058 42.267467 54.24119
3184 1 16.342016 41.868932 22.174657
3185 1 16.342016 41.868932 34.955641
3186 1 16.342016 41.868932 47.736624
3187 1 22.371952 42.117779 28.280351
3188 1 22.371952 42.117779 41.061335
3189 1 22.371952 42.117779 53.841542
3190 1 22.753952 41.968092 21.736984
3191 1 22.753952 41.968092 34.517968
3192 1 22.753952 41.968092 47.298175
3193 1 15.671764 47.889908 27.858198
3194 1 15.671764 47.889908 40.639182
3195 1 15.671764 47.889908 53.419389
3196 1 16.030814 48.280232 21.754833
3197 1 16.030814 48.280232 34.53504
3198 1 16.030814 48.280232 47.316024
3199 1 23.038314 48.165282 28.304408
3200 1 23.038314 48.165282 41.085391
3201 1 23.038314 48.165282 53.865599
3202 1 22.827085 48.464026 21.646966
3203 1 22.827085 48.464026 34.42795
3204 1 22.827085 48.464026 47.208933
3205 4 15.165671 41.933986 27.802325
3206 4 15.165671 41.933986 40.583309
3207 4 15.165671 41.933986 53.363516
3208 4 17.281069 41.709139 28.749065
3209 4 17.281069 41.709139 41.530048
3210 4 17.281069 41.709139 54.311032
3211 4 16.259936 42.041988 20.880263
3212 4 16.259936 42.041988 33.661246
3213 4 16.259936 42.041988 46.44223
3214 4 15.460146 42.44305 23.025171
3215 4 15.460146 42.44305 35.806154
3216 4 15.460146 42.44305 48.586362
3217 4 23.229314 42.783478 29.00903
3218 4 23.229314 42.783478 41.789238
3219 4 23.229314 42.783478 54.570221
3220 4 22.667205 41.516503 27.14504
3221 4 22.667205 41.516503 39.925247
3222 4 22.667205 41.516503 52.706231
3223 4 23.16863 43.218014 21.586437
3224 4 23.16863 43.218014 34.366645
3225 4 23.16863 43.218014 47.147628
3226 4 21.535595 41.619452 21.465379
3227 4 21.535595 41.619452 34.245586
3228 4 21.535595 41.619452 47.02657
3229 4 16.466108 47.649271 28.838307
3230 4 16.466108 47.649271 41.618514
3231 4 16.466108 47.649271 54.399498
3232 4 15.685379 48.968037 27.117103
3233 4 15.685379 48.968037 39.898087
3234 4 15.685379 48.968037 52.678294
3235 4 15.67332 48.516448 22.99025
3236 4 15.67332 48.516448 35.770458
3237 4 15.67332 48.516448 48.551441
3238 4 16.491004 49.201095 20.911303
3239 4 16.491004 49.201095 33.692287
3240 4 16.491004 49.201095 46.47327
3241 4 21.92771 47.647376 28.651287
3242 4 21.92771 47.647376 41.43227
3243 4 21.92771 47.647376 54.213254
3244 4 24.081231 48.423604 29.082752
3245 4 24.081231 48.423604 41.862959
3246 4 24.081231 48.423604 54.643943
3247 4 24.123632 48.380024 21.657831
3248 4 24.123632 48.380024 34.438814
3249 4 24.123632 48.380024 47.219798
3250 4 21.992285 48.097702 22.605346
3251 4 21.992285 48.097702 35.38633
3252 4 21.992285 48.097702 48.167313
3253 2 15.367175 41.183653 27.129519
3254 2 15.367175 41.183653 39.910503
3255 2 15.367175 41.183653 52.69071
3256 2 17.43667 40.778802 28.319928
3257 2 17.43667 40.778802 41.100911
3258 2 17.43667 40.778802 53.881119
3259 2 15.937842 43.144749 29.268219
3260 2 15.937842 43.144749 42.048427
3261 2 15.937842 43.144749 54.82941
3262 2 14.332816 42.43926 27.831038
3263 2 14.332816 42.43926 40.612021
3264 2 14.332816 42.43926 53.393005
3265 2 18.078136 42.183465 29.305468
3266 2 18.078136 42.183465 42.086452
3267 2 18.078136 42.183465 54.867435
3268 2 15.451588 42.559894 20.516311
3269 2 15.451588 42.559894 33.297295
3270 2 15.451588 42.559894 46.078278
3271 2 14.961444 43.186435 22.586722
3272 2 14.961444 43.186435 35.367705
3273 2 14.961444 43.186435 48.147913
3274 2 17.091625 41.304919 22.60457
3275 2 17.091625 41.304919 35.385554
3276 2 17.091625 41.304919 48.165761
3277 2 16.731797 41.429343 20.235393
3278 2 16.731797 41.429343 33.016377
3279 2 16.731797 41.429343 45.79736
3280 2 15.832033 42.69316 23.916813
3281 2 15.832033 42.69316 36.697021
3282 2 15.832033 42.69316 49.478004
3283 2 23.646714 41.634611 26.793504
3284 2 23.646714 41.634611 39.574488
3285 2 23.646714 41.634611 52.354695
3286 2 22.081366 40.806592 26.749272
3287 2 22.081366 40.806592 39.530255
3288 2 22.081366 40.806592 52.310463
3289 2 21.36599 42.014198 28.698624
3290 2 21.36599 42.014198 41.479607
3291 2 21.36599 42.014198 54.260591
3292 2 24.200655 42.859901 28.786314
3293 2 24.200655 42.859901 41.567297
3294 2 24.200655 42.859901 54.347505
3295 2 22.890104 43.171908 29.899896
3296 2 22.890104 43.171908 42.680104
3297 2 22.890104 43.171908 55.461088
3298 2 22.607298 44.028348 21.482451
3299 2 22.607298 44.028348 34.262658
3300 2 22.607298 44.028348 47.043642
3301 2 21.176545 40.767433 21.866579
3302 2 21.176545 40.767433 34.646786
3303 2 21.176545 40.767433 47.42777
3304 2 23.473997 41.18618 21.999278
3305 2 23.473997 41.18618 34.779485
3306 2 23.473997 41.18618 47.560469
3307 2 20.769259 42.246624 21.250422
3308 2 20.769259 42.246624 34.03063
3309 2 20.769259 42.246624 46.811613
3310 2 24.071506 43.433387 21.9403
3311 2 24.071506 43.433387 34.721284
3312 2 24.071506 43.433387 47.501491
3313 2 16.370802 46.73725 29.210794
3314 2 16.370802 46.73725 41.991002
3315 2 16.370802 46.73725 54.771985
3316 2 17.28846 48.084438 29.095944
3317 2 17.28846 48.084438 41.876927
3318 2 17.28846 48.084438 54.657911
3319 2 16.353686 49.721527 27.152024
3320 2 16.353686 49.721527 39.933007
3321 2 16.353686 49.721527 52.713991
3322 2 14.881699 47.201471 27.789909
3323 2 14.881699 47.201471 40.570116
3324 2 14.881699 47.201471 53.3511
3325 2 14.889868 48.91372 26.430329
3326 2 14.889868 48.91372 39.211312
3327 2 14.889868 48.91372 51.992296
3328 2 15.234913 47.75222 23.408523
3329 2 15.234913 47.75222 36.189506
3330 2 15.234913 47.75222 48.97049
3331 2 15.648813 49.478996 23.402315
3332 2 15.648813 49.478996 36.182522
3333 2 15.648813 49.478996 48.963506
3334 2 16.615096 50.151642 21.300863
3335 2 16.615096 50.151642 34.081847
3336 2 16.615096 50.151642 46.86283
3337 2 15.881436 47.30821 21.282239
3338 2 15.881436 47.30821 34.062446
3339 2 15.881436 47.30821 46.84343
3340 2 16.790536 48.916878 20.00026
3341 2 16.790536 48.916878 32.780468
3342 2 16.790536 48.916878 45.561451
3343 2 24.725809 49.15183 28.716472
3344 2 24.725809 49.15183 41.497456
3345 2 24.725809 49.15183 54.278439
3346 2 24.17887 48.126123 30.079156
3347 2 24.17887 48.126123 42.86014
3348 2 24.17887 48.126123 55.641123
3349 2 21.205721 47.471161 27.95132
3350 2 21.205721 47.471161 40.731528
3351 2 21.205721 47.471161 53.512511
3352 2 21.737099 47.366317 29.688044
3353 2 21.737099 47.366317 42.469028
3354 2 21.737099 47.366317 55.250011
3355 2 23.18419 48.412235 27.270754
3356 2 23.18419 48.412235 40.051738
3357 2 23.18419 48.412235 52.831945
3358 2 24.636727 48.895404 20.84379
3359 2 24.636727 48.895404 33.624773
3360 2 24.636727 48.895404 46.405757
3361 2 21.099134 48.477289 22.669755
3362 2 21.099134 48.477289 35.450739
3363 2 21.099134 48.477289 48.231722
3364 2 24.753428 47.994752 22.372541
3365 2 24.753428 47.994752 35.153525
3366 2 24.753428 47.994752 47.934508
3367 2 22.327605 47.42316 23.292896
3368 2 22.327605 47.42316 36.07388
3369 2 22.327605 47.42316 48.854087
3370 2 22.343554 48.872666 20.728939
3371 2 22.343554 48.872666 33.509923
3372 2 22.343554 48.872666 46.290906
3373 6 19.239699 38.869496 31.317678
3374 6 19.239699 38.869496 44.098661
3375 6 19.239699 38.869496 56.878869
3376 6 19.531063 38.710967 25.020308
3377 6 19.531063 38.710967 37.801291
3378 6 19.531063 38.710967 50.582275
3379 6 25.858196 39.110133 31.590835
3380 6 25.858196 39.110133 44.371819
3381 6 25.858196 39.110133 57.152802
3382 6 25.672642 39.295822 24.837944
3383 6 25.672642 39.295822 37.618928
3384 6 25.672642 39.295822 50.399911
3385 6 13.270448 45.410274 25.23216
3386 6 13.270448 45.410274 38.013144
3387 6 13.270448 45.410274 50.794127
3388 6 12.98492 45.29785 31.638948
3389 6 12.98492 45.29785 44.419932
3390 6 12.98492 45.29785 57.200915
3391 6 19.718951 44.905631 25.178615
3392 6 19.718951 44.905631 37.959599
3393 6 19.718951 44.905631 50.740582
3394 6 19.622478 45.21448 31.562123
3395 6 19.622478 45.21448 44.343106
3396 6 19.622478 45.21448 57.12409
3397 3 15.994636 39.384245 31.4496
3398 3 15.994636 39.384245 44.229808
3399 3 15.994636 39.384245 57.010791
3400 3 19.012911 38.73623 28.388993
3401 3 19.012911 38.73623 41.169977
3402 3 19.012911 38.73623 53.95096
3403 3 19.488661 41.820299 25.023412
3404 3 19.488661 41.820299 37.804395
3405 3 19.488661 41.820299 50.585379
3406 3 15.990357 39.174556 25.031948
3407 3 15.990357 39.174556 37.812156
3408 3 15.990357 39.174556 50.593139
3409 3 19.215192 39.047606 21.872787
3410 3 19.215192 39.047606 34.652994
3411 3 19.215192 39.047606 47.433978
3412 3 25.6812 39.12466 27.942784
3413 3 25.6812 39.12466 40.722992
3414 3 25.6812 39.12466 53.503975
3415 3 19.681218 41.915038 31.453481
3416 3 19.681218 41.915038 44.234464
3417 3 19.681218 41.915038 57.014672
3418 3 22.72361 38.626333 31.101945
3419 3 22.72361 38.626333 43.882929
3420 3 22.72361 38.626333 56.663912
3421 3 25.319038 38.889076 21.799065
3422 3 25.319038 38.889076 34.580049
3423 3 25.319038 38.889076 47.360256
3424 3 25.56411 42.239677 25.13283
3425 3 25.56411 42.239677 37.913814
3426 3 25.56411 42.239677 50.694797
3427 3 25.823964 42.135464 32.040149
3428 3 25.823964 42.135464 44.821132
3429 3 25.823964 42.135464 57.60134
3430 3 22.591349 38.855601 24.920978
3431 3 22.591349 38.855601 37.701185
3432 3 22.591349 38.855601 50.482169
3433 3 16.294558 44.452779 25.951527
3434 3 16.294558 44.452779 38.732511
3435 3 16.294558 44.452779 51.513494
3436 3 13.085283 45.013002 28.488323
3437 3 13.085283 45.013002 41.269307
3438 3 13.085283 45.013002 54.049514
3439 3 19.34084 44.784365 28.545749
3440 3 19.34084 44.784365 41.326732
3441 3 19.34084 44.784365 54.10694
3442 3 13.373145 48.426762 31.879513
3443 3 13.373145 48.426762 44.659721
3444 3 13.373145 48.426762 57.440704
3445 3 16.215979 44.838682 31.680077
3446 3 16.215979 44.838682 44.461061
3447 3 16.215979 44.838682 57.242044
3448 3 19.358345 45.171531 22.093176
3449 3 19.358345 45.171531 34.874159
3450 3 19.358345 45.171531 47.655143
3451 3 13.434608 45.338904 22.078431
3452 3 13.434608 45.338904 34.858639
3453 3 13.434608 45.338904 47.639622
3454 3 19.526784 48.025069 25.381155
3455 3 19.526784 48.025069 38.162139
3456 3 19.526784 48.025069 50.943122
3457 3 19.601472 48.123597 31.015031
3458 3 19.601472 48.123597 43.796015
3459 3 19.601472 48.123597 56.576222
3460 3 23.025477 45.292166 24.650148
3461 3 23.025477 45.292166 37.431132
3462 3 23.025477 45.292166 50.212115
3463 3 25.670308 48.312443 25.102566
3464 3 25.670308 48.312443 37.883549
3465 3 25.670308 48.312443 50.664533
3466 3 22.674596 45.439327 31.704134
3467 3 22.674596 45.439327 44.484341
3468 3 22.674596 45.439327 57.265325
3469 1 29.074084 42.267467 28.679223
3470 1 29.074084 42.267467 41.460207
3471 1 29.074084 42.267467 54.24119
3472 1 29.308653 41.868932 22.174657
3473 1 29.308653 41.868932 34.955641
3474 1 29.308653 41.868932 47.736624
3475 1 35.338589 42.117779 28.280351
3476 1 35.338589 42.117779 41.061335
3477 1 35.338589 42.117779 53.841542
3478 1 35.720978 41.968092 21.736984
3479 1 35.720978 41.968092 34.517968
3480 1 35.720978 41.968092 47.298175
3481 1 28.63879 47.889908 27.858198
3482 1 28.63879 47.889908 40.639182
3483 1 28.63879 47.889908 53.419389
3484 1 28.99784 48.280232 21.754833
3485 1 28.99784 48.280232 34.53504
3486 1 28.99784 48.280232 47.316024
3487 1 36.004951 48.165282 28.304408
3488 1 36.004951 48.165282 41.085391
3489 1 36.004951 48.165282 53.865599
3490 1 35.793722 48.464026 21.646966
3491 1 35.793722 48.464026 34.42795
3492 1 35.793722 48.464026 47.208933
3493 4 28.132697 41.933986 27.802325
3494 4 28.132697 41.933986 40.583309
3495 4 28.132697 41.933986 53.363516
3496 4 30.247706 41.709139 28.749065
3497 4 30.247706 41.709139 41.530048
3498 4 30.247706 41.709139 54.311032
3499 4 29.226573 42.041988 20.880263
3500 4 29.226573 42.041988 33.661246
3501 4 29.226573 42.041988 46.44223
3502 4 28.426783 42.44305 23.025171
3503 4 28.426783 42.44305 35.806154
3504 4 28.426783 42.44305 48.586362
3505 4 36.195951 42.783478 29.00903
3506 4 36.195951 42.783478 41.789238
3507 4 36.195951 42.783478 54.570221
3508 4 35.633842 41.516503 27.14504
3509 4 35.633842 41.516503 39.925247
3510 4 35.633842 41.516503 52.706231
3511 4 36.135267 43.218014 21.586437
3512 4 36.135267 43.218014 34.366645
3513 4 36.135267 43.218014 47.147628
3514 4 34.502232 41.619452 21.465379
3515 4 34.502232 41.619452 34.245586
3516 4 34.502232 41.619452 47.02657
3517 4 29.432745 47.649271 28.838307
3518 4 29.432745 47.649271 41.618514
3519 4 29.432745 47.649271 54.399498
3520 4 28.652016 48.968037 27.117103
3521 4 28.652016 48.968037 39.898087
3522 4 28.652016 48.968037 52.678294
3523 4 28.639957 48.516448 22.99025
3524 4 28.639957 48.516448 35.770458
3525 4 28.639957 48.516448 48.551441
3526 4 29.457641 49.201095 20.911303
3527 4 29.457641 49.201095 33.692287
3528 4 29.457641 49.201095 46.47327
3529 4 34.894347 47.647376 28.651287
3530 4 34.894347 47.647376 41.43227
3531 4 34.894347 47.647376 54.213254
3532 4 37.048257 48.423604 29.082752
3533 4 37.048257 48.423604 41.862959
3534 4 37.048257 48.423604 54.643943
3535 4 37.090269 48.380024 21.657831
3536 4 37.090269 48.380024 34.438814
3537 4 37.090269 48.380024 47.219798
3538 4 34.959311 48.097702 22.605346
3539 4 34.959311 48.097702 35.38633
3540 4 34.959311 48.097702 48.167313
3541 2 28.333812 41.183653 27.129519
3542 2 28.333812 41.183653 39.910503
3543 2 28.333812 41.183653 52.69071
3544 2 30.403696 40.778802 28.319928
3545 2 30.403696 40.778802 41.100911
3546 2 30.403696 40.778802 53.881119
3547 2 28.904868 43.144749 29.268219
3548 2 28.904868 43.144749 42.048427
3549 2 28.904868 43.144749 54.82941
3550 2 27.299453 42.43926 27.831038
3551 2 27.299453 42.43926 40.612021
3552 2 27.299453 42.43926 53.393005
3553 2 31.044773 42.183465 29.305468
3554 2 31.044773 42.183465 42.086452
3555 2 31.044773 42.183465 54.867435
3556 2 28.418225 42.559894 20.516311
3557 2 28.418225 42.559894 33.297295
3558 2 28.418225 42.559894 46.078278
3559 2 27.928081 43.186435 22.586722
3560 2 27.928081 43.186435 35.367705
3561 2 27.928081 43.186435 48.147913
3562 2 30.058262 41.304919 22.60457
3563 2 30.058262 41.304919 35.385554
3564 2 30.058262 41.304919 48.165761
3565 2 29.698823 41.429343 20.235393
3566 2 29.698823 41.429343 33.016377
3567 2 29.698823 41.429343 45.79736
3568 2 28.79867 42.69316 23.916813
3569 2 28.79867 42.69316 36.697021
3570 2 28.79867 42.69316 49.478004
3571 2 36.613351 41.634611 26.793504
3572 2 36.613351 41.634611 39.574488
3573 2 36.613351 41.634611 52.354695
3574 2 35.048003 40.806592 26.749272
3575 2 35.048003 40.806592 39.530255
3576 2 35.048003 40.806592 52.310463
3577 2 34.333016 42.014198 28.698624
3578 2 34.333016 42.014198 41.479607
3579 2 34.333016 42.014198 54.260591
3580 2 37.167681 42.859901 28.786314
3581 2 37.167681 42.859901 41.567297
3582 2 37.167681 42.859901 54.347505
3583 2 35.856741 43.171908 29.899896
3584 2 35.856741 43.171908 42.680104
3585 2 35.856741 43.171908 55.461088
3586 2 35.573935 44.028348 21.482451
3587 2 35.573935 44.028348 34.262658
3588 2 35.573935 44.028348 47.043642
3589 2 34.143182 40.767433 21.866579
3590 2 34.143182 40.767433 34.646786
3591 2 34.143182 40.767433 47.42777
3592 2 36.440634 41.18618 21.999278
3593 2 36.440634 41.18618 34.779485
3594 2 36.440634 41.18618 47.560469
3595 2 33.735896 42.246624 21.250422
3596 2 33.735896 42.246624 34.03063
3597 2 33.735896 42.246624 46.811613
3598 2 37.038143 43.433387 21.9403
3599 2 37.038143 43.433387 34.721284
3600 2 37.038143 43.433387 47.501491
3601 2 29.337439 46.73725 29.210794
3602 2 29.337439 46.73725 41.991002
3603 2 29.337439 46.73725 54.771985
3604 2 30.255486 48.084438 29.095944
3605 2 30.255486 48.084438 41.876927
3606 2 30.255486 48.084438 54.657911
3607 2 29.320712 49.721527 27.152024
3608 2 29.320712 49.721527 39.933007
3609 2 29.320712 49.721527 52.713991
3610 2 27.848336 47.201471 27.789909
3611 2 27.848336 47.201471 40.570116
3612 2 27.848336 47.201471 53.3511
3613 2 27.856505 48.91372 26.430329
3614 2 27.856505 48.91372 39.211312
3615 2 27.856505 48.91372 51.992296
3616 2 28.20155 47.75222 23.408523
3617 2 28.20155 47.75222 36.189506
3618 2 28.20155 47.75222 48.97049
3619 2 28.61545 49.478996 23.402315
3620 2 28.61545 49.478996 36.182522
3621 2 28.61545 49.478996 48.963506
3622 2 29.581733 50.151642 21.300863
3623 2 29.581733 50.151642 34.081847
3624 2 29.581733 50.151642 46.86283
3625 2 28.848073 47.30821 21.282239
3626 2 28.848073 47.30821 34.062446
3627 2 28.848073 47.30821 46.84343
3628 2 29.757173 48.916878 20.00026
3629 2 29.757173 48.916878 32.780468
3630 2 29.757173 48.916878 45.561451
3631 2 37.692446 49.15183 28.716472
3632 2 37.692446 49.15183 41.497456
3633 2 37.692446 49.15183 54.278439
3634 2 37.145507 48.126123 30.079156
3635 2 37.145507 48.126123 42.86014
3636 2 37.145507 48.126123 55.641123
3637 2 34.172747 47.471161 27.95132
3638 2 34.172747 47.471161 40.731528
3639 2 34.172747 47.471161 53.512511
3640 2 34.703736 47.366317 29.688044
3641 2 34.703736 47.366317 42.469028
3642 2 34.703736 47.366317 55.250011
3643 2 36.150827 48.412235 27.270754
3644 2 36.150827 48.412235 40.051738
3645 2 36.150827 48.412235 52.831945
3646 2 37.603364 48.895404 20.84379
3647 2 37.603364 48.895404 33.624773
3648 2 37.603364 48.895404 46.405757
3649 2 34.065771 48.477289 22.669755
3650 2 34.065771 48.477289 35.450739
3651 2 34.065771 48.477289 48.231722
3652 2 37.720065 47.994752 22.372541
3653 2 37.720065 47.994752 35.153525
3654 2 37.720065 47.994752 47.934508
3655 2 35.294242 47.42316 23.292896
3656 2 35.294242 47.42316 36.07388
3657 2 35.294242 47.42316 48.854087
3658 2 35.310191 48.872666 20.728939
3659 2 35.310191 48.872666 33.509923
3660 2 35.310191 48.872666 46.290906
3661 6 32.206336 38.869496 31.317678
3662 6 32.206336 38.869496 44.098661
3663 6 32.206336 38.869496 56.878869
3664 6 32.4977 38.710967 25.020308
3665 6 32.4977 38.710967 37.801291
3666 6 32.4977 38.710967 50.582275
3667 6 38.824833 39.110133 31.590835
3668 6 38.824833 39.110133 44.371819
3669 6 38.824833 39.110133 57.152802
3670 6 38.639279 39.295822 24.837944
3671 6 38.639279 39.295822 37.618928
3672 6 38.639279 39.295822 50.399911
3673 6 26.237085 45.410274 25.23216
3674 6 26.237085 45.410274 38.013144
3675 6 26.237085 45.410274 50.794127
3676 6 25.951946 45.29785 31.638948
3677 6 25.951946 45.29785 44.419932
3678 6 25.951946 45.29785 57.200915
3679 6 32.685977 44.905631 25.178615
3680 6 32.685977 44.905631 37.959599
3681 6 32.685977 44.905631 50.740582
3682 6 32.589115 45.21448 31.562123
3683 6 32.589115 45.21448 44.343106
3684 6 32.589115 45.21448 57.12409
3685 3 28.961273 39.384245 31.4496
3686 3 28.961273 39.384245 44.229808
3687 3 28.961273 39.384245 57.010791
3688 3 31.979548 38.73623 28.388993
3689 3 31.979548 38.73623 41.169977
3690 3 31.979548 38.73623 53.95096
3691 3 32.455298 41.820299 25.023412
3692 3 32.455298 41.820299 37.804395
3693 3 32.455298 41.820299 50.585379
3694 3 28.956994 39.174556 25.031948
3695 3 28.956994 39.174556 37.812156
3696 3 28.956994 39.174556 50.593139
3697 3 32.181829 39.047606 21.872787
3698 3 32.181829 39.047606 34.652994
3699 3 32.181829 39.047606 47.433978
3700 3 38.648226 39.12466 27.942784
3701 3 38.648226 39.12466 40.722992
3702 3 38.648226 39.12466 53.503975
3703 3 32.647855 41.915038 31.453481
3704 3 32.647855 41.915038 44.234464
3705 3 32.647855 41.915038 57.014672
3706 3 35.690247 38.626333 31.101945
3707 3 35.690247 38.626333 43.882929
3708 3 35.690247 38.626333 56.663912
3709 3 38.285675 38.889076 21.799065
3710 3 38.285675 38.889076 34.580049
3711 3 38.285675 38.889076 47.360256
3712 3 38.530747 42.239677 25.13283
3713 3 38.530747 42.239677 37.913814
3714 3 38.530747 42.239677 50.694797
3715 3 38.790601 42.135464 32.040149
3716 3 38.790601 42.135464 44.821132
3717 3 38.790601 42.135464 57.60134
3718 3 35.557986 38.855601 24.920978
3719 3 35.557986 38.855601 37.701185
3720 3 35.557986 38.855601 50.482169
3721 3 29.261195 44.452779 25.951527
3722 3 29.261195 44.452779 38.732511
3723 3 29.261195 44.452779 51.513494
3724 3 26.05192 45.013002 28.488323
3725 3 26.05192 45.013002 41.269307
3726 3 26.05192 45.013002 54.049514
3727 3 32.307477 44.784365 28.545749
3728 3 32.307477 44.784365 41.326732
3729 3 32.307477 44.784365 54.10694
3730 3 26.339782 48.426762 31.879513
3731 3 26.339782 48.426762 44.659721
3732 3 26.339782 48.426762 57.440704
3733 3 29.182616 44.838682 31.680077
3734 3 29.182616 44.838682 44.461061
3735 3 29.182616 44.838682 57.242044
3736 3 32.325371 45.171531 22.093176
3737 3 32.325371 45.171531 34.874159
3738 3 32.325371 45.171531 47.655143
3739 3 26.401245 45.338904 22.078431
3740 3 26.401245 45.338904 34.858639
3741 3 26.401245 45.338904 47.639622
3742 3 32.493421 48.025069 25.381155
3743 3 32.493421 48.025069 38.162139
3744 3 32.493421 48.025069 50.943122
3745 3 32.568109 48.123597 31.015031
3746 3 32.568109 48.123597 43.796015
3747 3 32.568109 48.123597 56.576222
3748 3 35.992503 45.292166 24.650148
3749 3 35.992503 45.292166 37.431132
3750 3 35.992503 45.292166 50.212115
3751 3 38.636945 48.312443 25.102566
3752 3 38.636945 48.312443 37.883549
3753 3 38.636945 48.312443 50.664533
3754 3 35.641233 45.439327 31.704134
3755 3 35.641233 45.439327 44.484341
3756 3 35.641233 45.439327 57.265325
3757 1 3.140421 54.899327 28.679223
3758 1 3.140421 54.899327 41.460207
3759 1 3.140421 54.899327 54.24119
3760 1 3.375379 54.500792 22.174657
3761 1 3.375379 54.500792 34.955641
3762 1 3.375379 54.500792 47.736624
3763 1 9.404926 54.749639 28.280351
3764 1 9.404926 54.749639 41.061335
3765 1 9.404926 54.749639 53.841542
3766 1 9.787315 54.599952 21.736984
3767 1 9.787315 54.599952 34.517968
3768 1 9.787315 54.599952 47.298175
3769 1 2.705127 60.521768 27.858198
3770 1 2.705127 60.521768 40.639182
3771 1 2.705127 60.521768 53.419389
3772 1 3.064177 60.912092 21.754833
3773 1 3.064177 60.912092 34.53504
3774 1 3.064177 60.912092 47.316024
3775 1 10.071288 60.797142 28.304408
3776 1 10.071288 60.797142 41.085391
3777 1 10.071288 60.797142 53.865599
3778 1 9.860448 61.095886 21.646966
3779 1 9.860448 61.095886 34.42795
3780 1 9.860448 61.095886 47.208933
3781 4 2.199034 54.565846 27.802325
3782 4 2.199034 54.565846 40.583309
3783 4 2.199034 54.565846 53.363516
3784 4 4.314432 54.340999 28.749065
3785 4 4.314432 54.340999 41.530048
3786 4 4.314432 54.340999 54.311032
3787 4 3.293299 54.673848 20.880263
3788 4 3.293299 54.673848 33.661246
3789 4 3.293299 54.673848 46.44223
3790 4 2.493509 55.07491 23.025171
3791 4 2.493509 55.07491 35.806154
3792 4 2.493509 55.07491 48.586362
3793 4 10.262677 55.415338 29.00903
3794 4 10.262677 55.415338 41.789238
3795 4 10.262677 55.415338 54.570221
3796 4 9.700568 54.148363 27.14504
3797 4 9.700568 54.148363 39.925247
3798 4 9.700568 54.148363 52.706231
3799 4 10.201993 55.849874 21.586437
3800 4 10.201993 55.849874 34.366645
3801 4 10.201993 55.849874 47.147628
3802 4 8.568569 54.251312 21.465379
3803 4 8.568569 54.251312 34.245586
3804 4 8.568569 54.251312 47.02657
3805 4 3.499471 60.281131 28.838307
3806 4 3.499471 60.281131 41.618514
3807 4 3.499471 60.281131 54.399498
3808 4 2.718353 61.599897 27.117103
3809 4 2.718353 61.599897 39.898087
3810 4 2.718353 61.599897 52.678294
3811 4 2.706683 61.148308 22.99025
3812 4 2.706683 61.148308 35.770458
3813 4 2.706683 61.148308 48.551441
3814 4 3.523978 61.832955 20.911303
3815 4 3.523978 61.832955 33.692287
3816 4 3.523978 61.832955 46.47327
3817 4 8.960684 60.279236 28.651287
3818 4 8.960684 60.279236 41.43227
3819 4 8.960684 60.279236 54.213254
3820 4 11.114594 61.055464 29.082752
3821 4 11.114594 61.055464 41.862959
3822 4 11.114594 61.055464 54.643943
3823 4 11.156606 61.011884 21.657831
3824 4 11.156606 61.011884 34.438814
3825 4 11.156606 61.011884 47.219798
3826 4 9.025648 60.729562 22.605346
3827 4 9.025648 60.729562 35.38633
3828 4 9.025648 60.729562 48.167313
3829 2 2.400538 53.815513 27.129519
3830 2 2.400538 53.815513 39.910503
3831 2 2.400538 53.815513 52.69071
3832 2 4.470033 53.410662 28.319928
3833 2 4.470033 53.410662 41.100911
3834 2 4.470033 53.410662 53.881119
3835 2 2.971205 55.776609 29.268219
3836 2 2.971205 55.776609 42.048427
3837 2 2.971205 55.776609 54.82941
3838 2 1.366179 55.07112 27.831038
3839 2 1.366179 55.07112 40.612021
3840 2 1.366179 55.07112 53.393005
3841 2 5.111499 54.815325 29.305468
3842 2 5.111499 54.815325 42.086452
3843 2 5.111499 54.815325 54.867435
3844 2 2.484951 55.191754 20.516311
3845 2 2.484951 55.191754 33.297295
3846 2 2.484951 55.191754 46.078278
3847 2 1.994807 55.818295 22.586722
3848 2 1.994807 55.818295 35.367705
3849 2 1.994807 55.818295 48.147913
3850 2 4.124599 53.936779 22.60457
3851 2 4.124599 53.936779 35.385554
3852 2 4.124599 53.936779 48.165761
3853 2 3.76516 54.061203 20.235393
3854 2 3.76516 54.061203 33.016377
3855 2 3.76516 54.061203 45.79736
3856 2 2.865007 55.32502 23.916813
3857 2 2.865007 55.32502 36.697021
3858 2 2.865007 55.32502 49.478004
3859 2 10.679688 54.266471 26.793504
3860 2 10.679688 54.266471 39.574488
3861 2 10.679688 54.266471 52.354695
3862 2 9.11434 53.438452 26.749272
3863 2 9.11434 53.438452 39.530255
3864 2 9.11434 53.438452 52.310463
3865 2 8.399353 54.646058 28.698624
3866 2 8.399353 54.646058 41.479607
3867 2 8.399353 54.646058 54.260591
3868 2 11.234018 55.491761 28.786314
3869 2 11.234018 55.491761 41.567297
3870 2 11.234018 55.491761 54.347505
3871 2 9.923078 55.803768 29.899896
3872 2 9.923078 55.803768 42.680104
3873 2 9.923078 55.803768 55.461088
3874 2 9.640272 56.660208 21.482451
3875 2 9.640272 56.660208 34.262658
3876 2 9.640272 56.660208 47.043642
3877 2 8.209908 53.399293 21.866579
3878 2 8.209908 53.399293 34.646786
3879 2 8.209908 53.399293 47.42777
3880 2 10.506971 53.81804 21.999278
3881 2 10.506971 53.81804 34.779485
3882 2 10.506971 53.81804 47.560469
3883 2 7.802233 54.878484 21.250422
3884 2 7.802233 54.878484 34.03063
3885 2 7.802233 54.878484 46.811613
3886 2 11.104869 56.065247 21.9403
3887 2 11.104869 56.065247 34.721284
3888 2 11.104869 56.065247 47.501491
3889 2 3.404165 59.36911 29.210794
3890 2 3.404165 59.36911 41.991002
3891 2 3.404165 59.36911 54.771985
3892 2 4.321823 60.716298 29.095944
3893 2 4.321823 60.716298 41.876927
3894 2 4.321823 60.716298 54.657911
3895 2 3.387049 62.353387 27.152024
3896 2 3.387049 62.353387 39.933007
3897 2 3.387049 62.353387 52.713991
3898 2 1.914673 59.833331 27.789909
3899 2 1.914673 59.833331 40.570116
3900 2 1.914673 59.833331 53.3511
3901 2 1.923231 61.54558 26.430329
3902 2 1.923231 61.54558 39.211312
3903 2 1.923231 61.54558 51.992296
3904 2 2.268276 60.38408 23.408523
3905 2 2.268276 60.38408 36.189506
3906 2 2.268276 60.38408 48.97049
3907 2 2.681787 62.110856 23.402315
3908 2 2.681787 62.110856 36.182522
3909 2 2.681787 62.110856 48.963506
3910 2 3.648459 62.783502 21.300863
3911 2 3.648459 62.783502 34.081847
3912 2 3.648459 62.783502 46.86283
3913 2 2.91441 59.94007 21.282239
3914 2 2.91441 59.94007 34.062446
3915 2 2.91441 59.94007 46.84343
3916 2 3.82351 61.548738 20.00026
3917 2 3.82351 61.548738 32.780468
3918 2 3.82351 61.548738 45.561451
3919 2 11.758783 61.78369 28.716472
3920 2 11.758783 61.78369 41.497456
3921 2 11.758783 61.78369 54.278439
3922 2 11.211844 60.757983 30.079156
3923 2 11.211844 60.757983 42.86014
3924 2 11.211844 60.757983 55.641123
3925 2 8.239084 60.103021 27.95132
3926 2 8.239084 60.103021 40.731528
3927 2 8.239084 60.103021 53.512511
3928 2 8.770073 59.998177 29.688044
3929 2 8.770073 59.998177 42.469028
3930 2 8.770073 59.998177 55.250011
3931 2 10.217553 61.044095 27.270754
3932 2 10.217553 61.044095 40.051738
3933 2 10.217553 61.044095 52.831945
3934 2 11.669701 61.527264 20.84379
3935 2 11.669701 61.527264 33.624773
3936 2 11.669701 61.527264 46.405757
3937 2 8.132108 61.109149 22.669755
3938 2 8.132108 61.109149 35.450739
3939 2 8.132108 61.109149 48.231722
3940 2 11.786402 60.626612 22.372541
3941 2 11.786402 60.626612 35.153525
3942 2 11.786402 60.626612 47.934508
3943 2 9.360579 60.05502 23.292896
3944 2 9.360579 60.05502 36.07388
3945 2 9.360579 60.05502 48.854087
3946 2 9.376917 61.504526 20.728939
3947 2 9.376917 61.504526 33.509923
3948 2 9.376917 61.504526 46.290906
3949 6 6.273062 51.501356 31.317678
3950 6 6.273062 51.501356 44.098661
3951 6 6.273062 51.501356 56.878869
3952 6 6.564037 51.342827 25.020308
3953 6 6.564037 51.342827 37.801291
3954 6 6.564037 51.342827 50.582275
3955 6 12.891559 51.741993 31.590835
3956 6 12.891559 51.741993 44.371819
3957 6 12.891559 51.741993 57.152802
3958 6 12.705616 51.927682 24.837944
3959 6 12.705616 51.927682 37.618928
3960 6 12.705616 51.927682 50.399911
3961 6 0.303811 58.042134 25.23216
3962 6 0.303811 58.042134 38.013144
3963 6 0.303811 58.042134 50.794127
3964 6 0.018283 57.92971 31.638948
3965 6 0.018283 57.92971 44.419932
3966 6 0.018283 57.92971 57.200915
3967 6 6.752314 57.537491 25.178615
3968 6 6.752314 57.537491 37.959599
3969 6 6.752314 57.537491 50.740582
3970 6 6.655452 57.84634 31.562123
3971 6 6.655452 57.84634 44.343106
3972 6 6.655452 57.84634 57.12409
3973 3 3.027999 52.016105 31.4496
3974 3 3.027999 52.016105 44.229808
3975 3 3.027999 52.016105 57.010791
3976 3 6.046274 51.36809 28.388993
3977 3 6.046274 51.36809 41.169977
3978 3 6.046274 51.36809 53.95096
3979 3 6.522024 54.452159 25.023412
3980 3 6.522024 54.452159 37.804395
3981 3 6.522024 54.452159 50.585379
3982 3 3.02372 51.806416 25.031948
3983 3 3.02372 51.806416 37.812156
3984 3 3.02372 51.806416 50.593139
3985 3 6.248166 51.679466 21.872787
3986 3 6.248166 51.679466 34.652994
3987 3 6.248166 51.679466 47.433978
3988 3 12.714563 51.75652 27.942784
3989 3 12.714563 51.75652 40.722992
3990 3 12.714563 51.75652 53.503975
3991 3 6.714581 54.546898 31.453481
3992 3 6.714581 54.546898 44.234464
3993 3 6.714581 54.546898 57.014672
3994 3 9.756584 51.258193 31.101945
3995 3 9.756584 51.258193 43.882929
3996 3 9.756584 51.258193 56.663912
3997 3 12.352401 51.520936 21.799065
3998 3 12.352401 51.520936 34.580049
3999 3 12.352401 51.520936 47.360256
4000 3 12.597473 54.871537 25.13283
4001 3 12.597473 54.871537 37.913814
4002 3 12.597473 54.871537 50.694797
4003 3 12.856938 54.767324 32.040149
4004 3 12.856938 54.767324 44.821132
4005 3 12.856938 54.767324 57.60134
4006 3 9.624712 51.487461 24.920978
4007 3 9.624712 51.487461 37.701185
4008 3 9.624712 51.487461 50.482169
4009 3 3.327921 57.084639 25.951527
4010 3 3.327921 57.084639 38.732511
4011 3 3.327921 57.084639 51.513494
4012 3 0.118646 57.644862 28.488323
4013 3 0.118646 57.644862 41.269307
4014 3 0.118646 57.644862 54.049514
4015 3 6.374203 57.416225 28.545749
4016 3 6.374203 57.416225 41.326732
4017 3 6.374203 57.416225 54.10694
4018 3 0.406508 61.058622 31.879513
4019 3 0.406508 61.058622 44.659721
4020 3 0.406508 61.058622 57.440704
4021 3 3.249342 57.470542 31.680077
4022 3 3.249342 57.470542 44.461061
4023 3 3.249342 57.470542 57.242044
4024 3 6.391708 57.803391 22.093176
4025 3 6.391708 57.803391 34.874159
4026 3 6.391708 57.803391 47.655143
4027 3 0.467582 57.970764 22.078431
4028 3 0.467582 57.970764 34.858639
4029 3 0.467582 57.970764 47.639622
4030 3 6.559758 60.656929 25.381155
4031 3 6.559758 60.656929 38.162139
4032 3 6.559758 60.656929 50.943122
4033 3 6.634446 60.755457 31.015031
4034 3 6.634446 60.755457 43.796015
4035 3 6.634446 60.755457 56.576222
4036 3 10.05884 57.924026 24.650148
4037 3 10.05884 57.924026 37.431132
4038 3 10.05884 57.924026 50.212115
4039 3 12.703282 60.944303 25.102566
4040 3 12.703282 60.944303 37.883549
4041 3 12.703282 60.944303 50.664533
4042 3 9.707959 58.071187 31.704134
4043 3 9.707959 58.071187 44.484341
4044 3 9.707959 58.071187 57.265325
4045 1 16.107058 54.899327 28.679223
4046 1 16.107058 54.899327 41.460207
4047 1 16.107058 54.899327 54.24119
4048 1 16.342016 54.500792 22.174657
4049 1 16.342016 54.500792 34.955641
4050 1 16.342016 54.500792 47.736624
4051 1 22.371952 54.749639 28.280351
4052 1 22.371952 54.749639 41.061335
4053 1 22.371952 54.749639 53.841542
4054 1 22.753952 54.599952 21.736984
4055 1 22.753952 54.599952 34.517968
4056 1 22.753952 54.599952 47.298175
4057 1 15.671764 60.521768 27.858198
4058 1 15.671764 60.521768 40.639182
4059 1 15.671764 60.521768 53.419389
4060 1 16.030814 60.912092 21.754833
4061 1 16.030814 60.912092 34.53504
4062 1 16.030814 60.912092 47.316024
4063 1 23.038314 60.797142 28.304408
4064 1 23.038314 60.797142 41.085391
4065 1 23.038314 60.797142 53.865599
4066 1 22.827085 61.095886 21.646966
4067 1 22.827085 61.095886 34.42795
4068 1 22.827085 61.095886 47.208933
4069 4 15.165671 54.565846 27.802325
4070 4 15.165671 54.565846 40.583309
4071 4 15.165671 54.565846 53.363516
4072 4 17.281069 54.340999 28.749065
4073 4 17.281069 54.340999 41.530048
4074 4 17.281069 54.340999 54.311032
4075 4 16.259936 54.673848 20.880263
4076 4 16.259936 54.673848 33.661246
4077 4 16.259936 54.673848 46.44223
4078 4 15.460146 55.07491 23.025171
4079 4 15.460146 55.07491 35.806154
4080 4 15.460146 55.07491 48.586362
4081 4 23.229314 55.415338 29.00903
4082 4 23.229314 55.415338 41.789238
4083 4 23.229314 55.415338 54.570221
4084 4 22.667205 54.148363 27.14504
4085 4 22.667205 54.148363 39.925247
4086 4 22.667205 54.148363 52.706231
4087 4 23.16863 55.849874 21.586437
4088 4 23.16863 55.849874 34.366645
4089 4 23.16863 55.849874 47.147628
4090 4 21.535595 54.251312 21.465379
4091 4 21.535595 54.251312 34.245586
4092 4 21.535595 54.251312 47.02657
4093 4 16.466108 60.281131 28.838307
4094 4 16.466108 60.281131 41.618514
4095 4 16.466108 60.281131 54.399498
4096 4 15.685379 61.599897 27.117103
4097 4 15.685379 61.599897 39.898087
4098 4 15.685379 61.599897 52.678294
4099 4 15.67332 61.148308 22.99025
4100 4 15.67332 61.148308 35.770458
4101 4 15.67332 61.148308 48.551441
4102 4 16.491004 61.832955 20.911303
4103 4 16.491004 61.832955 33.692287
4104 4 16.491004 61.832955 46.47327
4105 4 21.92771 60.279236 28.651287
4106 4 21.92771 60.279236 41.43227
4107 4 21.92771 60.279236 54.213254
4108 4 24.081231 61.055464 29.082752
4109 4 24.081231 61.055464 41.862959
4110 4 24.081231 61.055464 54.643943
4111 4 24.123632 61.011884 21.657831
4112 4 24.123632 61.011884 34.438814
4113 4 24.123632 61.011884 47.219798
4114 4 21.992285 60.729562 22.605346
4115 4 21.992285 60.729562 35.38633
4116 4 21.992285 60.729562 48.167313
4117 2 15.367175 53.815513 27.129519
4118 2 15.367175 53.815513 39.910503
4119 2 15.367175 53.815513 52.69071
4120 2 17.43667 53.410662 28.319928
4121 2 17.43667 53.410662 41.100911
4122 2 17.43667 53.410662 53.881119
4123 2 15.937842 55.776609 29.268219
4124 2 15.937842 55.776609 42.048427
4125 2 15.937842 55.776609 54.82941
4126 2 14.332816 55.07112 27.831038
4127 2 14.332816 55.07112 40.612021
4128 2 14.332816 55.07112 53.393005
4129 2 18.078136 54.815325 29.305468
4130 2 18.078136 54.815325 42.086452
4131 2 18.078136 54.815325 54.867435
4132 2 15.451588 55.191754 20.516311
4133 2 15.451588 55.191754 33.297295
4134 2 15.451588 55.191754 46.078278
4135 2 14.961444 55.818295 22.586722
4136 2 14.961444 55.818295 35.367705
4137 2 14.961444 55.818295 48.147913
4138 2 17.091625 53.936779 22.60457
4139 2 17.091625 53.936779 35.385554
4140 2 17.091625 53.936779 48.165761
4141 2 16.731797 54.061203 20.235393
4142 2 16.731797 54.061203 33.016377
4143 2 16.731797 54.061203 45.79736
4144 2 15.832033 55.32502 23.916813
4145 2 15.832033 55.32502 36.697021
4146 2 15.832033 55.32502 49.478004
4147 2 23.646714 54.266471 26.793504
4148 2 23.646714 54.266471 39.574488
4149 2 23.646714 54.266471 52.354695
4150 2 22.081366 53.438452 26.749272
4151 2 22.081366 53.438452 39.530255
4152 2 22.081366 53.438452 52.310463
4153 2 21.36599 54.646058 28.698624
4154 2 21.36599 54.646058 41.479607
4155 2 21.36599 54.646058 54.260591
4156 2 24.200655 55.491761 28.786314
4157 2 24.200655 55.491761 41.567297
4158 2 24.200655 55.491761 54.347505
4159 2 22.890104 55.803768 29.899896
4160 2 22.890104 55.803768 42.680104
4161 2 22.890104 55.803768 55.461088
4162 2 22.607298 56.660208 21.482451
4163 2 22.607298 56.660208 34.262658
4164 2 22.607298 56.660208 47.043642
4165 2 21.176545 53.399293 21.866579
4166 2 21.176545 53.399293 34.646786
4167 2 21.176545 53.399293 47.42777
4168 2 23.473997 53.81804 21.999278
4169 2 23.473997 53.81804 34.779485
4170 2 23.473997 53.81804 47.560469
4171 2 20.769259 54.878484 21.250422
4172 2 20.769259 54.878484 34.03063
4173 2 20.769259 54.878484 46.811613
4174 2 24.071506 56.065247 21.9403
4175 2 24.071506 56.065247 34.721284
4176 2 24.071506 56.065247 47.501491
4177 2 16.370802 59.36911 29.210794
4178 2 16.370802 59.36911 41.991002
4179 2 16.370802 59.36911 54.771985
4180 2 17.28846 60.716298 29.095944
4181 2 17.28846 60.716298 41.876927
4182 2 17.28846 60.716298 54.657911
4183 2 16.353686 62.353387 27.152024
4184 2 16.353686 62.353387 39.933007
4185 2 16.353686 62.353387 52.713991
4186 2 14.881699 59.833331 27.789909
4187 2 14.881699 59.833331 40.570116
4188 2 14.881699 59.833331 53.3511
4189 2 14.889868 61.54558 26.430329
4190 2 14.889868 61.54558 39.211312
4191 2 14.889868 61.54558 51.992296
4192 2 15.234913 60.38408 23.408523
4193 2 15.234913 60.38408 36.189506
4194 2 15.234913 60.38408 48.97049
4195 2 15.648813 62.110856 23.402315
4196 2 15.648813 62.110856 36.182522
4197 2 15.648813 62.110856 48.963506
4198 2 16.615096 62.783502 21.300863
4199 2 16.615096 62.783502 34.081847
4200 2 16.615096 62.783502 46.86283
4201 2 15.881436 59.94007 21.282239
4202 2 15.881436 59.94007 34.062446
4203 2 15.881436 59.94007 46.84343
4204 2 16.790536 61.548738 20.00026
4205 2 16.790536 61.548738 32.780468
4206 2 16.790536 61.548738 45.561451
4207 2 24.725809 61.78369 28.716472
4208 2 24.725809 61.78369 41.497456
4209 2 24.725809 61.78369 54.278439
4210 2 24.17887 60.757983 30.079156
4211 2 24.17887 60.757983 42.86014
4212 2 24.17887 60.757983 55.641123
4213 2 21.205721 60.103021 27.95132
4214 2 21.205721 60.103021 40.731528
4215 2 21.205721 60.103021 53.512511
4216 2 21.737099 59.998177 29.688044
4217 2 21.737099 59.998177 42.469028
4218 2 21.737099 59.998177 55.250011
4219 2 23.18419 61.044095 27.270754
4220 2 23.18419 61.044095 40.051738
4221 2 23.18419 61.044095 52.831945
4222 2 24.636727 61.527264 20.84379
4223 2 24.636727 61.527264 33.624773
4224 2 24.636727 61.527264 46.405757
4225 2 21.099134 61.109149 22.669755
4226 2 21.099134 61.109149 35.450739
4227 2 21.099134 61.109149 48.231722
4228 2 24.753428 60.626612 22.372541
4229 2 24.753428 60.626612 35.153525
4230 2 24.753428 60.626612 47.934508
4231 2 22.327605 60.05502 23.292896
4232 2 22.327605 60.05502 36.07388
4233 2 22.327605 60.05502 48.854087
4234 2 22.343554 61.504526 20.728939
4235 2 22.343554 61.504526 33.509923
4236 2 22.343554 61.504526 46.290906
4237 6 19.239699 51.501356 31.317678
4238 6 19.239699 51.501356 44.098661
4239 6 19.239699 51.501356 56.878869
4240 6 19.531063 51.342827 25.020308
4241 6 19.531063 51.342827 37.801291
4242 6 19.531063 51.342827 50.582275
4243 6 25.858196 51.741993 31.590835
4244 6 25.858196 51.741993 44.371819
4245 6 25.858196 51.741993 57.152802
4246 6 25.672642 51.927682 24.837944
4247 6 25.672642 51.927682 37.618928
4248 6 25.672642 51.927682 50.399911
4249 6 13.270448 58.042134 25.23216
4250 6 13.270448 58.042134 38.013144
4251 6 13.270448 58.042134 50.794127
4252 6 12.98492 57.92971 31.638948
4253 6 12.98492 57.92971 44.419932
4254 6 12.98492 57.92971 57.200915
4255 6 19.718951 57.537491 25.178615
4256 6 19.718951 57.537491 37.959599
4257 6 19.718951 57.537491 50.740582
4258 6 19.622478 57.84634 31.562123
4259 6 19.622478 57.84634 44.343106
4260 6 19.622478 57.84634 57.12409
4261 3 15.994636 52.016105 31.4496
4262 3 15.994636 52.016105 44.229808
4263 3 15.994636 52.016105 57.010791
4264 3 19.012911 51.36809 28.388993
4265 3 19.012911 51.36809 41.169977
4266 3 19.012911 51.36809 53.95096
4267 3 19.488661 54.452159 25.023412
4268 3 19.488661 54.452159 37.804395
4269 3 19.488661 54.452159 50.585379
4270 3 15.990357 51.806416 25.031948
4271 3 15.990357 51.806416 37.812156
4272 3 15.990357 51.806416 50.593139
4273 3 19.215192 51.679466 21.872787
4274 3 19.215192 51.679466 34.652994
4275 3 19.215192 51.679466 47.433978
4276 3 25.6812 51.75652 27.942784
4277 3 25.6812 51.75652 40.722992
4278 3 25.6812 51.75652 53.503975
4279 3 19.681218 54.546898 31.453481
4280 3 19.681218 54.546898 44.234464
4281 3 19.681218 54.546898 57.014672
4282 3 22.72361 51.258193 31.101945
4283 3 22.72361 51.258193 43.882929
4284 3 22.72361 51.258193 56.663912
4285 3 25.319038 51.520936 21.799065
4286 3 25.319038 51.520936 34.580049
4287 3 25.319038 51.520936 47.360256
4288 3 25.56411 54.871537 25.13283
4289 3 25.56411 54.871537 37.913814
4290 3 25.56411 54.871537 50.694797
4291 3 25.823964 54.767324 32.040149
4292 3 25.823964 54.767324 44.821132
4293 3 25.823964 54.767324 57.60134
4294 3 22.591349 51.487461 24.920978
4295 3 22.591349 51.487461 37.701185
4296 3 22.591349 51.487461 50.482169
4297 3 16.294558 57.084639 25.951527
4298 3 16.294558 57.084639 38.732511
4299 3 16.294558 57.084639 51.513494
4300 3 13.085283 57.644862 28.488323
4301 3 13.085283 57.644862 41.269307
4302 3 13.085283 57.644862 54.049514
4303 3 19.34084 57.416225 28.545749
4304 3 19.34084 57.416225 41.326732
4305 3 19.34084 57.416225 54.10694
4306 3 13.373145 61.058622 31.879513
4307 3 13.373145 61.058622 44.659721
4308 3 13.373145 61.058622 57.440704
4309 3 16.215979 57.470542 31.680077
4310 3 16.215979 57.470542 44.461061
4311 3 16.215979 57.470542 57.242044
4312 3 19.358345 57.803391 22.093176
4313 3 19.358345 57.803391 34.874159
4314 3 19.358345 57.803391 47.655143
4315 3 13.434608 57.970764 22.078431
4316 3 13.434608 57.970764 34.858639
4317 3 13.434608 57.970764 47.639622
4318 3 19.526784 60.656929 25.381155
4319 3 19.526784 60.656929 38.162139
4320 3 19.526784 60.656929 50.943122
4321 3 19.601472 60.755457 31.015031
4322 3 19.601472 60.755457 43.796015
4323 3 19.601472 60.755457 56.576222
4324 3 23.025477 57.924026 24.650148
4325 3 23.025477 57.924026 37.431132
4326 3 23.025477 57.924026 50.212115
4327 3 25.670308 60.944303 25.102566
4328 3 25.670308 60.944303 37.883549
4329 3 25.670308 60.944303 50.664533
4330 3 22.674596 58.071187 31.704134
4331 3 22.674596 58.071187 44.484341
4332 3 22.674596 58.071187 57.265325
4333 1 29.074084 54.899327 28.679223
4334 1 29.074084 54.899327 41.460207
4335 1 29.074084 54.899327 54.24119
4336 1 29.308653 54.500792 22.174657
4337 1 29.308653 54.500792 34.955641
4338 1 29.308653 54.500792 47.736624
4339 1 35.338589 54.749639 28.280351
4340 1 35.338589 54.749639 41.061335
4341 1 35.338589 54.749639 53.841542
4342 1 35.720978 54.599952 21.736984
4343 1 35.720978 54.599952 34.517968
4344 1 35.720978 54.599952 47.298175
4345 1 28.63879 60.521768 27.858198
4346 1 28.63879 60.521768 40.639182
4347 1 28.63879 60.521768 53.419389
4348 1 28.99784 60.912092 21.754833
4349 1 28.99784 60.912092 34.53504
4350 1 28.99784 60.912092 47.316024
4351 1 36.004951 60.797142 28.304408
4352 1 36.004951 60.797142 41.085391
4353 1 36.004951 60.797142 53.865599
4354 1 35.793722 61.095886 21.646966
4355 1 35.793722 61.095886 34.42795
4356 1 35.793722 61.095886 47.208933
4357 4 28.132697 54.565846 27.802325
4358 4 28.132697 54.565846 40.583309
4359 4 28.132697 54.565846 53.363516
4360 4 30.247706 54.340999 28.749065
4361 4 30.247706 54.340999 41.530048
4362 4 30.247706 54.340999 54.311032
4363 4 29.226573 54.673848 20.880263
4364 4 29.226573 54.673848 33.661246
4365 4 29.226573 54.673848 46.44223
4366 4 28.426783 55.07491 23.025171
4367 4 28.426783 55.07491 35.806154
4368 4 28.426783 55.07491 48.586362
4369 4 36.195951 55.415338 29.00903
4370 4 36.195951 55.415338 41.789238
4371 4 36.195951 55.415338 54.570221
4372 4 35.633842 54.148363 27.14504
4373 4 35.633842 54.148363 39.925247
4374 4 35.633842 54.148363 52.706231
4375 4 36.135267 55.849874 21.586437
4376 4 36.135267 55.849874 34.366645
4377 4 36.135267 55.849874 47.147628
4378 4 34.502232 54.251312 21.465379
4379 4 34.502232 54.251312 34.245586
4380 4 34.502232 54.251312 47.02657
4381 4 29.432745 60.281131 28.838307
4382 4 29.432745 60.281131 41.618514
4383 4 29.432745 60.281131 54.399498
4384 4 28.652016 61.599897 27.117103
4385 4 28.652016 61.599897 39.898087
4386 4 28.652016 61.599897 52.678294
4387 4 28.639957 61.148308 22.99025
4388 4 28.639957 61.148308 35.770458
4389 4 28.639957 61.148308 48.551441
4390 4 29.457641 61.832955 20.911303
4391 4 29.457641 61.832955 33.692287
4392 4 29.457641 61.832955 46.47327
4393 4 34.894347 60.279236 28.651287
4394 4 34.894347 60.279236 41.43227
4395 4 34.894347 60.279236 54.213254
4396 4 37.048257 61.055464 29.082752
4397 4 37.048257 61.055464 41.862959
4398 4 37.048257 61.055464 54.643943
4399 4 37.090269 61.011884 21.657831
4400 4 37.090269 61.011884 34.438814
4401 4 37.090269 61.011884 47.219798
4402 4 34.959311 60.729562 22.605346
4403 4 34.959311 60.729562 35.38633
4404 4 34.959311 60.729562 48.167313
4405 2 28.333812 53.815513 27.129519
4406 2 28.333812 53.815513 39.910503
4407 2 28.333812 53.815513 52.69071
4408 2 30.403696 53.410662 28.319928
4409 2 30.403696 53.410662 41.100911
4410 2 30.403696 53.410662 53.881119
4411 2 28.904868 55.776609 29.268219
4412 2 28.904868 55.776609 42.048427
4413 2 28.904868 55.776609 54.82941
4414 2 27.299453 55.07112 27.831038
4415 2 27.299453 55.07112 40.612021
4416 2 27.299453 55.07112 53.393005
4417 2 31.044773 54.815325 29.305468
4418 2 31.044773 54.815325 42.086452
4419 2 31.044773 54.815325 54.867435
4420 2 28.418225 55.191754 20.516311
4421 2 28.418225 55.191754 33.297295
4422 2 28.418225 55.191754 46.078278
4423 2 27.928081 55.818295 22.586722
4424 2 27.928081 55.818295 35.367705
4425 2 27.928081 55.818295 48.147913
4426 2 30.058262 53.936779 22.60457
4427 2 30.058262 53.936779 35.385554
4428 2 30.058262 53.936779 48.165761
4429 2 29.698823 54.061203 20.235393
4430 2 29.698823 54.061203 33.016377
4431 2 29.698823 54.061203 45.79736
4432 2 28.79867 55.32502 23.916813
4433 2 28.79867 55.32502 36.697021
4434 2 28.79867 55.32502 49.478004
4435 2 36.613351 54.266471 26.793504
4436 2 36.613351 54.266471 39.574488
4437 2 36.613351 54.266471 52.354695
4438 2 35.048003 53.438452 26.749272
4439 2 35.048003 53.438452 39.530255
4440 2 35.048003 53.438452 52.310463
4441 2 34.333016 54.646058 28.698624
4442 2 34.333016 54.646058 41.479607
4443 2 34.333016 54.646058 54.260591
4444 2 37.167681 55.491761 28.786314
4445 2 37.167681 55.491761 41.567297
4446 2 37.167681 55.491761 54.347505
4447 2 35.856741 55.803768 29.899896
4448 2 35.856741 55.803768 42.680104
4449 2 35.856741 55.803768 55.461088
4450 2 35.573935 56.660208 21.482451
4451 2 35.573935 56.660208 34.262658
4452 2 35.573935 56.660208 47.043642
4453 2 34.143182 53.399293 21.866579
4454 2 34.143182 53.399293 34.646786
4455 2 34.143182 53.399293 47.42777
4456 2 36.440634 53.81804 21.999278
4457 2 36.440634 53.81804 34.779485
4458 2 36.440634 53.81804 47.560469
4459 2 33.735896 54.878484 21.250422
4460 2 33.735896 54.878484 34.03063
4461 2 33.735896 54.878484 46.811613
4462 2 37.038143 56.065247 21.9403
4463 2 37.038143 56.065247 34.721284
4464 2 37.038143 56.065247 47.501491
4465 2 29.337439 59.36911 29.210794
4466 2 29.337439 59.36911 41.991002
4467 2 29.337439 59.36911 54.771985
4468 2 30.255486 60.716298 29.095944
4469 2 30.255486 60.716298 41.876927
4470 2 30.255486 60.716298 54.657911
4471 2 29.320712 62.353387 27.152024
4472 2 29.320712 62.353387 39.933007
4473 2 29.320712 62.353387 52.713991
4474 2 27.848336 59.833331 27.789909
4475 2 27.848336 59.833331 40.570116
4476 2 27.848336 59.833331 53.3511
4477 2 27.856505 61.54558 26.430329
4478 2 27.856505 61.54558 39.211312
4479 2 27.856505 61.54558 51.992296
4480 2 28.20155 60.38408 23.408523
4481 2 28.20155 60.38408 36.189506
4482 2 28.20155 60.38408 48.97049
4483 2 28.61545 62.110856 23.402315
4484 2 28.61545 62.110856 36.182522
4485 2 28.61545 62.110856 48.963506
4486 2 29.581733 62.783502 21.300863
4487 2 29.581733 62.783502 34.081847
4488 2 29.581733 62.783502 46.86283
4489 2 28.848073 59.94007 21.282239
4490 2 28.848073 59.94007 34.062446
4491 2 28.848073 59.94007 46.84343
4492 2 29.757173 61.548738 20.00026
4493 2 29.757173 61.548738 32.780468
4494 2 29.757173 61.548738 45.561451
4495 2 37.692446 61.78369 28.716472
4496 2 37.692446 61.78369 41.497456
4497 2 37.692446 61.78369 54.278439
4498 2 37.145507 60.757983 30.079156
4499 2 37.145507 60.757983 42.86014
4500 2 37.145507 60.757983 55.641123
4501 2 34.172747 60.103021 27.95132
4502 2 34.172747 60.103021 40.731528
4503 2 34.172747 60.103021 53.512511
4504 2 34.703736 59.998177 29.688044
4505 2 34.703736 59.998177 42.469028
4506 2 34.703736 59.998177 55.250011
4507 2 36.150827 61.044095 27.270754
4508 2 36.150827 61.044095 40.051738
4509 2 36.150827 61.044095 52.831945
4510 2 37.603364 61.527264 20.84379
4511 2 37.603364 61.527264 33.624773
4512 2 37.603364 61.527264 46.405757
4513 2 34.065771 61.109149 22.669755
4514 2 34.065771 61.109149 35.450739
4515 2 34.065771 61.109149 48.231722
4516 2 37.720065 60.626612 22.372541
4517 2 37.720065 60.626612 35.153525
4518 2 37.720065 60.626612 47.934508
4519 2 35.294242 60.05502 23.292896
4520 2 35.294242 60.05502 36.07388
4521 2 35.294242 60.05502 48.854087
4522 2 35.310191 61.504526 20.728939
4523 2 35.310191 61.504526 33.509923
4524 2 35.310191 61.504526 46.290906
4525 6 32.206336 51.501356 31.317678
4526 6 32.206336 51.501356 44.098661
4527 6 32.206336 51.501356 56.878869
4528 6 32.4977 51.342827 25.020308
4529 6 32.4977 51.342827 37.801291
4530 6 32.4977 51.342827 50.582275
4531 6 38.824833 51.741993 31.590835
4532 6 38.824833 51.741993 44.371819
4533 6 38.824833 51.741993 57.152802
4534 6 38.639279 51.927682 24.837944
4535 6 38.639279 51.927682 37.618928
4536 6 38.639279 51.927682 50.399911
4537 6 26.237085 58.042134 25.23216
4538 6 26.237085 58.042134 38.013144
4539 6 26.237085 58.042134 50.794127
4540 6 25.951946 57.92971 31.638948
4541 6 25.951946 57.92971 44.419932
4542 6 25.951946 57.92971 57.200915
4543 6 32.685977 57.537491 25.178615
4544 6 32.685977 57.537491 37.959599
4545 6 32.685977 57.537491 50.740582
4546 6 32.589115 57.84634 31.562123
4547 6 32.589115 57.84634 44.343106
4548 6 32.589115 57.84634 57.12409
4549 3 28.961273 52.016105 31.4496
4550 3 28.961273 52.016105 44.229808
4551 3 28.961273 52.016105 57.010791
4552 3 31.979548 51.36809 28.388993
4553 3 31.979548 51.36809 41.169977
4554 3 31.979548 51.36809 53.95096
4555 3 32.455298 54.452159 25.023412
4556 3 32.455298 54.452159 37.804395
4557 3 32.455298 54.452159 50.585379
4558 3 28.956994 51.806416 25.031948
4559 3 28.956994 51.806416 37.812156
4560 3 28.956994 51.806416 50.593139
4561 3 32.181829 51.679466 21.872787
4562 3 32.181829 51.679466 34.652994
4563 3 32.181829 51.679466 47.433978
4564 3 38.648226 51.75652 27.942784
4565 3 38.648226 51.75652 40.722992
4566 3 38.648226 51.75652 53.503975
4567 3 32.647855 54.546898 31.453481
4568 3 32.647855 54.546898 44.234464
4569 3 32.647855 54.546898 57.014672
4570 3 35.690247 51.258193 31.101945
4571 3 35.690247 51.258193 43.882929
4572 3 35.690247 51.258193 56.663912
4573 3 38.285675 51.520936 21.799065
4574 3 38.285675 51.520936 34.580049
4575 3 38.285675 51.520936 47.360256
4576 3 38.530747 54.871537 25.13283
4577 3 38.530747 54.871537 37.913814
4578 3 38.530747 54.871537 50.694797
4579 3 38.790601 54.767324 32.040149
4580 3 38.790601 54.767324 44.821132
4581 3 38.790601 54.767324 57.60134
4582 3 35.557986 51.487461 24.920978
4583 3 35.557986 51.487461 37.701185
4584 3 35.557986 51.487461 50.482169
4585 3 29.261195 57.084639 25.951527
4586 3 29.261195 57.084639 38.732511
4587 3 29.261195 57.084639 51.513494
4588 3 26.05192 57.644862 28.488323
4589 3 26.05192 57.644862 41.269307
4590 3 26.05192 57.644862 54.049514
4591 3 32.307477 57.416225 28.545749
4592 3 32.307477 57.416225 41.326732
4593 3 32.307477 57.416225 54.10694
4594 3 26.339782 61.058622 31.879513
4595 3 26.339782 61.058622 44.659721
4596 3 26.339782 61.058622 57.440704
4597 3 29.182616 57.470542 31.680077
4598 3 29.182616 57.470542 44.461061
4599 3 29.182616 57.470542 57.242044
4600 3 32.325371 57.803391 22.093176
4601 3 32.325371 57.803391 34.874159
4602 3 32.325371 57.803391 47.655143
4603 3 26.401245 57.970764 22.078431
4604 3 26.401245 57.970764 34.858639
4605 3 26.401245 57.970764 47.639622
4606 3 32.493421 60.656929 25.381155
4607 3 32.493421 60.656929 38.162139
4608 3 32.493421 60.656929 50.943122
4609 3 32.568109 60.755457 31.015031
4610 3 32.568109 60.755457 43.796015
4611 3 32.568109 60.755457 56.576222
4612 3 35.992503 57.924026 24.650148
4613 3 35.992503 57.924026 37.431132
4614 3 35.992503 57.924026 50.212115
4615 3 38.636945 60.944303 25.102566
4616 3 38.636945 60.944303 37.883549
4617 3 38.636945 60.944303 50.664533
4618 3 35.641233 58.071187 31.704134
4619 3 35.641233 58.071187 44.484341
4620 3 35.641233 58.071187 57.265325
