# LAMMPS data file written by OVITO Basic 3.10.6

4920 atoms
6 atom types

0.0 38.9003 xlo xhi
0.0 63.1593 ylo yhi
0.0 77.6016 zlo zhi

Atom Type Labels

1 C
2 H
3 I
4 N
5 O
6 Pb

Masses

1 12.0107  # C
2 1.00794  # H
3 126.90447  # I
4 14.0067  # N
5 15.9994  # O
6 207.2  # Pb

Atoms  # atomic

1 2 22.00993 14.398391 16.004929
2 2 22.684345 12.929943 16.03179
3 5 22.777608 13.885448 16.352478
4 2 9.657889 60.672619 18.296604
5 2 10.124399 59.69995 19.500006
6 5 10.443 60.370362 18.811844
7 2 24.402098 13.889967 17.836364
8 2 24.552171 12.65074 18.862858
9 5 25.05434 13.380682 18.37343
10 2 33.067371 22.523794 16.011258
11 2 32.501273 22.115512 17.468905
12 5 32.855681 21.754947 16.592027
13 2 21.415213 13.441788 18.021919
14 2 21.051698 12.898427 19.499928
15 5 21.47319 12.653891 18.612756
16 2 14.691706 44.325261 19.44485
17 2 14.390112 45.169269 18.100013
18 5 14.043887 44.937821 19.022557
19 2 28.456838 57.119793 18.490455
20 2 26.8583 56.941818 18.648241
21 5 27.759214 56.645311 19.001746
22 2 9.299457 20.827208 16.240584
23 2 8.406967 22.121888 16.613625
24 5 8.479171 21.319836 16.000416
25 2 35.644669 41.84747 16.030524
26 2 36.391167 40.418242 16.139812
27 5 36.406541 41.381667 16.449819
28 2 10.990211 61.460987 16.733452
29 2 12.449606 60.929056 17.179671
30 5 11.89997 61.754538 16.977171
31 2 26.257249 41.233528 18.772708
32 2 25.55749 41.629892 17.370878
33 5 25.694648 41.914009 18.332643
34 2 12.670305 16.169064 17.550899
35 2 13.825879 15.039869 17.512635
36 5 12.892375 15.274415 17.199447
37 2 23.245086 7.302706 16.116214
38 2 21.934834 6.652136 16.803159
39 5 22.940912 6.581876 16.71714
40 2 37.760606 21.112302 17.105436
41 2 37.053674 20.66797 18.489167
42 5 37.900295 21.042035 18.07949
43 2 5.248009 41.991215 16.007293
44 2 5.834702 42.717217 17.326614
45 5 6.042271 42.447754 16.373287
46 2 5.288385 46.089996 16.0
47 2 5.383601 44.943359 17.134924
48 5 5.761253 45.261472 16.251346
49 2 14.776533 36.412056 17.529619
50 2 14.413776 36.036599 16.000131
51 5 14.034882 36.360259 16.881159
52 2 12.131499 2.374326 17.357049
53 2 11.967431 2.861156 18.889359
54 5 11.632271 2.991156 17.943159
55 2 10.848148 44.307969 15.999765
56 2 10.527154 45.440051 17.107578
57 5 10.120785 44.720209 16.523438
58 2 24.234346 62.142071 18.74345
59 2 23.839083 61.954199 17.187697
60 5 23.477596 62.158636 18.110768
61 2 37.009332 43.229538 18.010951
62 2 36.33258 43.997056 16.760023
63 5 36.146433 43.427094 17.575511
64 2 36.447973 37.475361 16.500735
65 2 37.831621 38.279325 16.726688
66 5 37.236296 37.842118 16.034615
67 2 11.621182 36.671252 16.936075
68 2 10.53197 37.105509 18.04825
69 5 11.058876 36.328209 17.670489
70 2 27.031869 9.128323 17.161179
71 2 25.976964 9.517982 16.000474
72 5 26.936938 9.612772 16.307055
73 2 11.67438 18.090641 17.149188
74 2 12.010782 17.915275 18.720167
75 5 12.100021 18.531612 17.922237
76 2 6.676615 18.458381 18.420755
77 2 6.687862 18.376043 16.806757
78 5 6.930662 17.885996 17.658478
79 2 35.277112 12.739647 17.667896
80 2 34.929046 12.570062 19.236968
81 5 35.640395 12.858814 18.577322
82 2 22.327314 50.749437 16.867739
83 2 22.532516 51.018807 18.448001
84 5 22.423321 51.461121 17.544141
85 2 12.582153 25.949535 17.40192
86 2 12.400652 24.589366 16.548167
87 5 12.638467 24.966161 17.457011
88 2 22.400654 26.906542 19.361985
89 2 23.457484 28.094299 19.071747
90 5 22.684433 27.566814 18.686159
91 2 10.430331 1.645059 16.000488
92 2 10.181931 1.378409 17.575001
93 5 10.053604 1.000118 16.644971
94 2 23.109969 54.277238 18.670126
95 2 23.739998 53.389377 17.475697
96 5 22.91446 53.543062 18.040847
97 2 14.110509 18.201155 16.898386
98 2 14.327782 19.66312 17.552103
99 5 14.249671 19.153349 16.68115
100 2 7.601459 43.998364 16.401501
101 2 8.530944 42.697807 16.639206
102 5 8.319289 43.453586 16.000044
103 2 10.340784 57.108178 17.454376
104 2 10.113908 56.440932 16.000001
105 5 9.679507 56.638803 16.892565
106 2 36.318416 24.261192 16.000047
107 2 37.474557 24.113654 17.11963
108 5 37.199231 23.855205 16.180521
109 2 22.27882 29.826142 17.512676
110 2 22.702959 29.445653 16.000317
111 5 22.104777 29.19271 16.776671
112 2 9.803091 26.005708 17.732941
113 2 10.7227 25.637885 19.010017
114 5 10.541703 25.426615 18.03681
115 2 20.651151 5.056179 16.000006
116 2 19.961627 5.563167 17.370924
117 5 19.838712 4.9781 16.554152
118 2 35.422575 21.155116 17.094299
119 2 35.259031 22.333127 16.000024
120 5 35.496165 21.357952 16.131661
121 2 10.243928 58.838829 15.999962
122 2 9.212069 60.061055 16.23088
123 5 9.601614 59.222597 16.642912
124 2 34.935603 49.713316 17.677495
125 2 34.701939 49.253607 16.145841
126 5 34.343453 49.829532 16.897057
127 2 23.026525 9.261073 18.923909
128 2 22.022026 8.050163 18.554352
129 5 22.48357 8.87646 18.195552
130 2 13.523755 41.393661 16.192549
131 2 11.997662 40.897568 16.000641
132 5 12.656972 41.300664 16.654361
133 2 10.328827 22.812809 17.431704
134 2 11.067409 23.409285 18.739606
135 5 11.036914 22.630367 18.093941
136 2 6.564791 47.87864 16.871057
137 2 7.074243 48.979792 17.938679
138 5 7.135743 48.00718 17.665236
139 2 33.293491 31.954029 17.398198
140 2 34.101252 31.886903 16.000016
141 5 34.114517 31.609543 16.973373
142 2 34.620115 4.055308 16.280595
143 2 33.721541 5.379771 16.50478
144 5 34.456887 4.806583 16.898797
145 2 20.440191 38.683002 16.270202
146 2 19.094096 38.822789 17.153595
147 5 19.455279 38.650995 16.223778
148 2 20.567497 35.706464 17.567813
149 2 19.812116 35.467333 18.976397
150 5 19.969256 35.08852 18.051014
151 2 35.209782 14.923838 17.953375
152 2 35.142752 15.70268 19.367875
153 5 35.10338 15.8151 18.362718
154 2 23.390944 9.753594 16.393524
155 2 24.236762 10.524602 17.534591
156 5 23.515838 10.628574 16.83175
157 2 23.434773 45.454423 16.000001
158 2 22.562443 45.455855 17.360492
159 5 23.053687 46.040477 16.696094
160 2 10.547837 20.130122 18.298114
161 2 9.827315 21.175146 19.298448
162 5 9.706997 20.619755 18.460838
163 2 10.695684 29.197146 16.000024
164 2 11.981957 30.058013 16.465109
165 5 10.98464 29.935477 16.587053
166 2 9.090262 52.051639 17.703601
167 2 10.125642 51.492203 16.595939
168 5 9.712896 52.328153 16.990091
169 2 19.182325 21.81862 16.710369
170 2 20.488953 22.451677 16.000539
171 5 20.115419 22.09553 16.871262
172 2 35.536588 6.783646 18.565649
173 2 34.302877 7.193684 17.605586
174 5 35.032964 7.552731 18.207737
175 2 19.490599 2.190978 18.953251
176 2 19.848408 3.066309 17.642654
177 5 20.099917 2.884875 18.606164
178 2 32.103004 12.445772 17.29814
179 2 32.762056 11.946788 18.686866
180 5 32.941535 12.43348 17.817702
181 2 35.584855 19.00776 18.041626
182 2 35.882817 18.767007 16.471546
183 5 35.710337 18.308401 17.357242
184 2 27.651542 15.886764 16.123937
185 2 26.04196 15.807718 16.001896
186 5 26.888339 15.261992 16.103639
187 2 12.587634 20.919459 17.034374
188 2 12.649021 20.690053 18.632967
189 5 12.817911 21.355224 17.888957
190 2 9.455204 9.598305 17.86644
191 2 8.280142 8.81013 18.647404
192 5 8.703826 8.971193 17.742375
193 2 8.979812 17.181052 17.197057
194 2 8.867968 18.73945 16.7838
195 5 9.464235 18.040375 17.208403
196 2 10.32784 51.260427 19.344692
197 2 11.076445 50.001513 18.661594
198 5 10.211341 50.316663 19.082073
199 2 36.63415 56.064214 16.083023
200 2 37.900292 55.926362 17.077899
201 5 37.04573 56.438084 16.897918
202 2 20.329947 30.83436 17.676247
203 2 20.888169 31.562015 19.006961
204 5 20.105865 31.501552 18.36753
205 2 8.952048 56.827322 19.137423
206 2 8.638184 58.193107 18.332429
207 5 9.049612 57.808351 19.173391
208 2 22.119415 1.470091 17.820177
209 2 22.487832 2.646742 16.775353
210 5 22.033164 2.438939 17.655479
211 2 12.986824 48.19003 18.395468
212 2 14.001872 47.135933 19.081363
213 5 13.03318 47.315078 18.848834
214 2 24.94018 57.950196 18.285431
215 2 25.498635 57.240324 16.945243
216 5 24.864546 57.139921 17.727788
217 2 6.692091 22.226808 17.987759
218 2 7.69085 21.672662 19.13113
219 5 6.873825 21.454989 18.5747
220 2 13.329028 55.69313 16.181671
221 2 11.891382 55.500858 16.894483
222 5 12.615033 55.036297 16.360591
223 2 34.312707 54.947534 16.450632
224 2 34.880973 55.779052 17.714573
225 5 34.322926 54.981685 17.436512
226 2 36.524957 32.636981 16.878262
227 2 36.200523 32.073618 18.357877
228 5 36.589133 31.838051 17.453434
229 2 26.375923 18.002427 16.000015
230 2 26.74266 17.665243 17.53745
231 5 27.113924 17.992781 16.654609
232 2 35.939756 28.991147 17.438456
233 2 35.263806 29.091811 18.902988
234 5 35.094743 28.863885 17.931395
235 2 23.680972 33.266425 16.000316
236 2 23.119052 33.009005 17.493593
237 5 23.279839 32.584046 16.589113
238 2 22.673336 25.542136 17.641074
239 2 24.267809 25.780874 17.529029
240 5 23.429971 25.554496 17.008158
241 2 9.205155 48.718776 17.424401
242 2 9.581396 49.438466 16.027123
243 5 9.116693 49.560763 16.917978
244 2 8.140985 54.100354 16.003621
245 2 7.300663 53.075158 16.928137
246 5 7.381239 53.471064 16.000078
247 2 20.553278 52.572912 17.926677
248 2 20.107307 53.464568 16.654689
249 5 20.705223 52.70758 16.961271
250 2 26.274839 61.45003 18.149055
251 2 25.972992 61.99272 16.656985
252 5 26.548292 62.121268 17.479806
253 2 12.68388 45.797181 16.861891
254 2 13.361229 47.090193 16.168195
255 5 13.006183 46.157045 16.001746
256 2 21.904054 60.880195 16.593304
257 2 21.745806 60.804581 18.199896
258 5 21.381635 60.463711 17.319149
259 2 33.091356 49.896478 18.866495
260 2 33.252067 51.436618 19.329137
261 5 33.670674 50.515967 19.370336
262 2 22.359962 58.582079 16.59881
263 2 21.978516 58.526026 18.168286
264 5 21.947656 58.016637 17.294159
265 2 13.347996 39.208478 16.403326
266 2 11.978829 39.091833 17.254015
267 5 12.530917 38.667925 16.519149
268 2 6.274506 26.267231 18.613468
269 2 7.877174 26.457254 18.698569
270 5 7.074664 26.493893 18.082806
271 2 33.525496 3.116858 18.025691
272 2 33.36253 1.524195 17.804866
273 5 32.999097 2.433151 17.547486
274 2 10.901148 32.485184 17.550684
275 2 11.051004 32.05365 16.000453
276 5 10.640196 32.730177 16.631384
277 2 25.279126 30.936802 16.000209
278 2 26.321776 32.113087 16.37588
279 5 25.403075 31.734068 16.567866
280 2 12.000245 52.859086 18.69649
281 2 13.206516 53.624214 17.94059
282 5 12.326542 53.141559 17.809377
283 2 18.281648 12.829445 17.317983
284 2 19.501394 13.845397 17.014742
285 5 19.174347 13.110885 17.629608
286 2 37.459117 11.633226 17.881963
287 2 37.055644 11.490017 16.323567
288 5 37.636604 11.994441 16.981267
289 2 21.478663 26.509516 16.067151
290 2 20.083948 26.267844 16.84706
291 5 20.741509 25.865701 16.190995
292 2 7.755707 39.301563 17.162734
293 2 7.534981 38.175935 16.024254
294 5 7.1431 39.007702 16.447479
295 2 6.682381 57.230864 18.634157
296 2 5.536925 58.070274 17.862654
297 5 6.519586 57.82759 17.865622
298 2 32.090957 51.268909 17.468036
299 2 32.42393 51.860161 16.001255
300 5 32.827483 51.559029 16.879316
301 2 24.995462 35.790112 16.000072
302 2 25.053545 35.704283 17.612882
303 5 25.289858 35.225032 16.75323
304 2 23.981277 31.082697 18.114969
305 2 23.771674 30.26729 19.494489
306 5 24.451263 30.550492 18.799879
307 2 33.253277 19.298848 18.658704
308 2 33.441832 19.461195 17.061836
309 5 33.359642 18.793521 17.818132
310 2 10.319572 47.366801 16.069872
311 2 11.061767 47.537838 17.49528
312 5 11.204902 47.449537 16.497161
313 2 6.282398 40.972312 18.79844
314 2 6.776591 42.428411 19.295879
315 5 6.967588 41.435234 19.336446
316 2 6.611775 55.668727 16.21119
317 2 7.258395 55.276981 17.639586
318 5 7.234403 55.978916 16.910725
319 2 36.582075 39.538042 18.147119
320 2 35.358194 39.319611 19.179737
321 5 35.95352 38.864249 18.499473
322 2 23.311347 21.412577 18.696017
323 2 23.418425 21.046566 17.125519
324 5 23.168244 20.690401 18.039348
325 2 32.885079 41.559955 16.144537
326 2 33.172838 41.348551 17.720734
327 5 33.550475 41.222716 16.790098
328 2 8.833049 43.872363 18.476792
329 2 8.921296 42.291559 18.801087
330 5 8.829433 43.212745 19.21036
331 2 23.55801 59.278933 19.501178
332 2 24.136525 60.01649 18.184657
333 5 24.281788 59.86445 19.174763
334 2 20.319586 47.060429 17.487161
335 2 20.902663 46.245804 18.755349
336 5 21.112533 46.955245 18.06457
337 2 34.350923 21.688979 18.939981
338 2 35.515858 22.78037 18.687614
339 5 34.53451 22.657566 18.903026
340 2 37.769966 26.223463 16.469926
341 2 37.900214 26.927336 17.918889
342 5 37.303089 26.811472 17.109849
343 2 10.903082 41.637441 19.497955
344 2 12.181777 42.625756 19.506197
345 5 11.830163 41.736097 19.175437
346 2 26.295794 11.694752 16.00012
347 2 24.976294 12.618032 16.135652
348 5 25.781625 12.254263 16.629253
349 2 34.321372 58.328193 17.246374
350 2 35.453169 58.277467 16.09383
351 5 35.254455 58.065322 17.063383
352 2 20.107625 57.957729 16.091629
353 2 19.34349 59.378985 16.002053
354 5 20.161129 58.904469 16.363754
355 2 8.440646 24.206295 17.317799
356 2 8.372733 25.268353 16.101528
357 5 8.072556 24.353757 16.414474
358 2 27.873668 33.838183 16.526954
359 2 27.76654 34.548977 17.974431
360 5 27.659661 34.689209 16.977717
361 2 21.822728 15.601661 18.116042
362 2 22.539662 15.172585 19.499442
363 5 22.700924 15.481472 18.549121
364 2 13.636128 43.492991 16.833698
365 2 13.843081 42.483596 18.078764
366 5 13.325563 43.287864 17.747319
367 2 25.051775 39.303957 17.913693
368 2 26.481493 38.605509 17.630898
369 5 25.930037 39.105475 18.316797
370 2 28.333354 56.724991 16.011067
371 2 26.962772 55.869086 16.039848
372 5 27.538736 56.520001 16.5586
373 2 10.677769 5.91151 17.712656
374 2 11.368018 4.982352 18.840538
375 5 11.010627 5.908156 18.641325
376 2 10.36401 41.482169 17.35139
377 2 10.723065 43.003325 17.762555
378 5 10.672732 42.347856 16.99291
379 2 19.310611 62.15829 18.56329
380 2 19.145868 62.154071 16.955578
381 5 19.744357 61.876506 17.723235
382 2 7.484299 32.332482 17.705912
383 2 8.047168 32.322593 16.190994
384 5 8.010143 31.804265 17.059609
385 2 26.167028 26.972336 17.573128
386 2 26.633107 27.276132 19.090486
387 5 26.104393 26.645037 18.501666
388 2 25.070669 7.417852 17.338503
389 2 25.162572 8.590715 18.446583
390 5 24.860629 8.366961 17.506747
391 2 19.670377 33.201531 16.163319
392 2 21.103833 33.894428 16.440795
393 5 20.639062 33.110604 16.000186
394 2 24.980696 28.219612 16.000001
395 2 24.874267 28.752515 17.522033
396 5 25.386143 28.838014 16.65301
397 2 35.422363 25.705165 17.397172
398 2 34.737497 25.150471 18.751856
399 5 34.705977 25.88121 18.052175
400 2 8.765882 27.922688 17.114272
401 2 9.164818 28.334849 18.625188
402 5 9.032937 28.682641 17.683819
403 2 20.905199 10.78986 17.247095
404 2 19.925863 10.485057 18.496052
405 5 20.864787 10.366242 18.137121
406 2 20.492381 19.950419 16.560788
407 2 20.82763 20.398035 18.077081
408 5 21.099404 19.78329 17.320276
409 2 24.913948 51.684193 16.490755
410 2 24.702348 51.385851 18.064957
411 5 24.814013 50.96023 17.153417
412 2 18.574721 57.132768 18.629191
413 2 19.832308 58.129502 18.43712
414 5 18.921878 58.025064 18.866931
415 2 25.917152 45.475535 17.421661
416 2 26.281967 45.180195 18.968135
417 5 26.647609 45.510104 18.08383
418 2 20.732876 45.322626 16.000576
419 2 19.283869 44.9647 16.620386
420 5 20.257824 44.69073 16.590715
421 2 33.207024 14.510218 17.1423
422 2 32.53796 15.43739 16.000108
423 5 33.159903 14.656634 16.167839
424 2 24.745295 4.052268 17.02245
425 2 26.238283 3.447559 17.153631
426 5 25.687628 4.208048 16.775527
427 2 5.785414 50.715362 16.742006
428 2 5.533555 50.501766 18.324043
429 5 5.138855 50.368645 17.401537
430 2 36.585735 54.402326 18.383314
431 2 36.693085 53.814312 16.881778
432 5 36.234561 53.707181 17.777773
433 2 36.09596 1.220756 17.414342
434 2 35.361929 1.889145 16.139057
435 5 35.850178 2.08362 17.004112
436 2 10.394962 46.876192 19.500885
437 2 10.948656 45.372983 19.287151
438 5 10.136091 45.971051 19.206035
439 2 27.150138 29.616869 18.731154
440 2 27.347736 29.712451 17.129994
441 5 27.484934 29.126105 17.943568
442 2 12.083917 6.216864 16.048351
443 2 13.162492 7.039951 16.926474
444 5 12.946057 6.693966 16.000203
445 2 22.417827 39.252596 17.047707
446 2 22.952418 39.324551 18.571167
447 5 22.135231 39.184867 17.99046
448 2 37.899907 49.326469 18.478356
449 2 37.715898 49.152239 16.882211
450 5 37.692586 49.815102 17.6468
451 2 23.009537 17.764413 16.009611
452 2 22.687024 18.27164 17.509811
453 5 22.749253 18.554497 16.539942
454 2 37.9003 5.827472 17.106982
455 2 36.949392 4.556637 17.411362
456 5 37.898964 4.846866 17.214874
457 2 11.471443 13.649517 17.672242
458 2 10.803759 14.580682 18.81199
459 5 11.292237 13.710926 18.640408
460 2 23.93723 60.109646 15.99507
461 2 25.303226 59.37092 16.442546
462 5 24.401423 59.239183 16.002178
463 2 12.767294 28.996065 18.673336
464 2 11.225231 28.900385 19.147447
465 5 11.840148 28.924962 18.34383
466 2 11.565474 9.263833 17.079739
467 2 12.312804 9.563095 18.481109
468 5 11.656372 8.952372 18.011383
469 2 22.24909 56.653755 19.289184
470 2 23.784382 56.196981 19.503964
471 5 23.185279 56.935514 19.157305
472 2 27.104584 50.526773 17.187237
473 2 26.626624 50.448837 18.729111
474 5 26.644109 49.954657 17.84593
475 2 13.117738 37.625165 18.42979
476 2 13.335244 36.20963 19.178689
477 5 12.931575 37.133844 19.264762
478 2 19.476529 16.832932 16.403968
479 2 20.594464 17.613888 17.271277
480 5 19.621621 17.611789 16.991813
481 2 26.226943 33.029128 18.374148
482 2 25.090209 33.258836 19.499744
483 5 25.521647 32.573756 18.892245
484 2 6.297929 11.905148 16.636254
485 2 6.466833 13.441209 16.163092
486 5 5.798358 12.701116 16.336097
487 2 7.418054 53.27535 19.1158
488 2 5.966945 53.715057 18.556484
489 5 6.546719 53.652416 19.383808
490 2 8.164689 36.286002 18.859694
491 2 7.44936 36.456387 17.420538
492 5 7.70736 35.791564 18.138852
493 2 24.792156 16.585305 18.47051
494 2 24.142474 16.188207 17.044984
495 5 24.461529 16.958304 17.619164
496 2 8.594866 34.493638 16.571779
497 2 9.788987 34.482682 17.660747
498 5 9.411659 34.967943 16.856587
499 2 37.711964 15.335083 16.665055
500 2 37.673144 14.813384 18.194179
501 5 37.295504 15.492379 17.545425
502 2 15.778389 43.710436 16.000434
503 2 15.807869 45.270626 16.420952
504 5 16.375062 44.443881 16.281985
505 2 13.626871 30.988841 18.01814
506 2 13.257457 31.517556 19.499993
507 5 12.878542 31.277065 18.592736
508 2 36.182116 60.651914 16.778902
509 2 36.507891 61.225165 18.254419
510 5 35.930721 61.347315 17.431933
511 2 13.50368 5.17167 18.037085
512 2 14.14351 4.348152 16.802447
513 5 13.54679 4.280007 17.617192
514 2 19.706184 28.319051 17.733529
515 2 19.337292 29.15033 16.397569
516 5 20.010105 28.521097 16.816992
517 2 20.707237 42.39174 18.824255
518 2 21.162132 42.828949 17.336366
519 5 21.340142 42.18461 18.096409
520 2 12.227658 58.208743 17.014897
521 2 12.145886 57.719973 18.553179
522 5 12.500035 57.489968 17.633286
523 2 36.042785 45.277616 19.50003
524 2 35.340022 45.470571 18.057536
525 5 35.173332 45.414039 19.054303
526 2 13.318818 33.965402 16.000007
527 2 11.887403 34.535892 16.487336
528 5 12.605108 33.846062 16.670534
529 2 26.827287 14.034358 19.499987
530 2 26.537099 15.245465 18.469983
531 5 26.753472 15.015746 19.431721
532 2 23.528594 48.558471 17.588054
533 2 22.182188 48.850167 18.43304
534 5 23.169812 48.639989 18.503402
535 2 14.537447 40.199656 17.964915
536 2 13.666214 40.255378 19.324967
537 5 14.172445 39.645797 18.695151
538 2 9.731548 39.777525 19.587815
539 2 9.727978 39.166886 18.091485
540 5 9.241625 39.175269 18.979133
541 2 34.160522 60.786743 18.800537
542 2 32.892238 60.632463 17.810815
543 5 33.622655 60.129442 18.298656
544 2 9.809952 3.784063 16.738433
545 2 8.691205 3.975989 17.888853
546 5 9.150736 3.300872 17.290876
547 2 7.982752 11.998193 19.24334
548 2 8.293777 11.583827 17.712504
549 5 7.855388 11.284458 18.574317
550 2 10.339713 38.19104 15.995407
551 2 10.039156 39.778979 15.999023
552 5 9.620137 38.861287 15.916603
553 2 27.318207 60.251788 16.609669
554 2 27.377127 58.697792 16.16976
555 5 27.807884 59.605574 16.04766
556 2 7.844976 6.330569 17.135256
557 2 8.620642 5.481189 16.000007
558 5 8.729438 6.178488 16.725586
559 2 26.01188 24.453397 17.824506
560 2 26.317146 25.125385 16.386751
561 5 26.71301 24.580302 17.1422
562 2 8.593293 46.361528 17.604657
563 2 8.398596 46.255001 16.003832
564 5 7.94955 46.112714 16.899733
565 2 34.757591 47.730758 18.61588
566 2 36.235406 47.967529 18.006047
567 5 35.713661 47.532061 18.756165
568 2 13.362876 49.350763 16.565211
569 2 11.840033 49.507091 16.047133
570 5 12.770926 49.90176 16.000209
571 2 32.112314 16.462443 17.89938
572 2 32.139701 16.684182 19.499998
573 5 32.617621 16.888871 18.631538
574 2 24.659256 18.781231 18.933699
575 2 24.714765 19.127792 17.356135
576 5 24.995783 19.437048 18.278044
577 2 36.565052 7.370712 16.28508
578 2 36.248141 8.929656 16.000202
579 5 36.488905 8.255138 16.715454
580 2 8.504367 14.182251 18.417624
581 2 8.630238 13.932916 16.825807
582 5 9.071812 13.77255 17.722368
583 2 27.790929 13.012872 17.107024
584 2 28.599314 13.88013 18.205329
585 5 28.488437 12.958184 17.802526
586 2 35.607553 47.252415 16.022515
587 2 34.700439 45.915054 16.000026
588 5 34.703968 46.904784 16.212036
589 2 37.003498 17.273499 18.805242
590 2 37.870446 18.635924 18.741239
591 5 37.899541 17.650893 18.972313
592 2 23.337399 55.449676 16.824645
593 2 23.540238 56.825613 16.001511
594 5 22.966301 55.996846 16.092441
595 2 32.363393 44.323477 17.567896
596 2 33.882836 44.15872 17.042496
597 5 32.913158 43.953805 16.836916
598 2 12.595864 11.753498 17.532091
599 2 12.080415 11.188852 16.108229
600 5 11.786557 11.570584 16.998429
601 1 3.140421 4.371887 28.679223
602 1 3.140421 4.371887 41.460207
603 1 3.140421 4.371887 54.24119
604 1 3.375379 3.973352 22.174657
605 1 3.375379 3.973352 34.955641
606 1 3.375379 3.973352 47.736624
607 1 9.404926 4.222199 28.280351
608 1 9.404926 4.222199 41.061335
609 1 9.404926 4.222199 53.841542
610 1 9.787315 4.072512 21.736984
611 1 9.787315 4.072512 34.517968
612 1 9.787315 4.072512 47.298175
613 1 2.705127 9.994328 27.858198
614 1 2.705127 9.994328 40.639182
615 1 2.705127 9.994328 53.419389
616 1 3.064177 10.384652 21.754833
617 1 3.064177 10.384652 34.53504
618 1 3.064177 10.384652 47.316024
619 1 10.071288 10.269702 28.304408
620 1 10.071288 10.269702 41.085391
621 1 10.071288 10.269702 53.865599
622 1 9.860448 10.568446 21.646966
623 1 9.860448 10.568446 34.42795
624 1 9.860448 10.568446 47.208933
625 4 2.199034 4.038406 27.802325
626 4 2.199034 4.038406 40.583309
627 4 2.199034 4.038406 53.363516
628 4 4.314432 3.813559 28.749065
629 4 4.314432 3.813559 41.530048
630 4 4.314432 3.813559 54.311032
631 4 3.293299 4.146408 20.880263
632 4 3.293299 4.146408 33.661246
633 4 3.293299 4.146408 46.44223
634 4 2.493509 4.54747 23.025171
635 4 2.493509 4.54747 35.806154
636 4 2.493509 4.54747 48.586362
637 4 10.262677 4.887898 29.00903
638 4 10.262677 4.887898 41.789238
639 4 10.262677 4.887898 54.570221
640 4 9.700568 3.620923 27.14504
641 4 9.700568 3.620923 39.925247
642 4 9.700568 3.620923 52.706231
643 4 10.201993 5.322434 21.586437
644 4 10.201993 5.322434 34.366645
645 4 10.201993 5.322434 47.147628
646 4 8.568569 3.723872 21.465379
647 4 8.568569 3.723872 34.245586
648 4 8.568569 3.723872 47.02657
649 4 3.499471 9.753691 28.838307
650 4 3.499471 9.753691 41.618514
651 4 3.499471 9.753691 54.399498
652 4 2.718353 11.072457 27.117103
653 4 2.718353 11.072457 39.898087
654 4 2.718353 11.072457 52.678294
655 4 2.706683 10.620868 22.99025
656 4 2.706683 10.620868 35.770458
657 4 2.706683 10.620868 48.551441
658 4 3.523978 11.305515 20.911303
659 4 3.523978 11.305515 33.692287
660 4 3.523978 11.305515 46.47327
661 4 8.960684 9.751796 28.651287
662 4 8.960684 9.751796 41.43227
663 4 8.960684 9.751796 54.213254
664 4 11.114594 10.528024 29.082752
665 4 11.114594 10.528024 41.862959
666 4 11.114594 10.528024 54.643943
667 4 11.156606 10.484444 21.657831
668 4 11.156606 10.484444 34.438814
669 4 11.156606 10.484444 47.219798
670 4 9.025648 10.202122 22.605346
671 4 9.025648 10.202122 35.38633
672 4 9.025648 10.202122 48.167313
673 2 2.400538 3.288073 27.129519
674 2 2.400538 3.288073 39.910503
675 2 2.400538 3.288073 52.69071
676 2 4.470033 2.883222 28.319928
677 2 4.470033 2.883222 41.100911
678 2 4.470033 2.883222 53.881119
679 2 2.971205 5.249169 29.268219
680 2 2.971205 5.249169 42.048427
681 2 2.971205 5.249169 54.82941
682 2 1.366179 4.54368 27.831038
683 2 1.366179 4.54368 40.612021
684 2 1.366179 4.54368 53.393005
685 2 5.111499 4.287885 29.305468
686 2 5.111499 4.287885 42.086452
687 2 5.111499 4.287885 54.867435
688 2 2.484951 4.664314 20.516311
689 2 2.484951 4.664314 33.297295
690 2 2.484951 4.664314 46.078278
691 2 1.994807 5.290855 22.586722
692 2 1.994807 5.290855 35.367705
693 2 1.994807 5.290855 48.147913
694 2 4.124599 3.409339 22.60457
695 2 4.124599 3.409339 35.385554
696 2 4.124599 3.409339 48.165761
697 2 3.76516 3.533763 20.235393
698 2 3.76516 3.533763 33.016377
699 2 3.76516 3.533763 45.79736
700 2 2.865007 4.79758 23.916813
701 2 2.865007 4.79758 36.697021
702 2 2.865007 4.79758 49.478004
703 2 10.679688 3.739031 26.793504
704 2 10.679688 3.739031 39.574488
705 2 10.679688 3.739031 52.354695
706 2 9.11434 2.911012 26.749272
707 2 9.11434 2.911012 39.530255
708 2 9.11434 2.911012 52.310463
709 2 8.399353 4.118618 28.698624
710 2 8.399353 4.118618 41.479607
711 2 8.399353 4.118618 54.260591
712 2 11.234018 4.964321 28.786314
713 2 11.234018 4.964321 41.567297
714 2 11.234018 4.964321 54.347505
715 2 9.923078 5.276328 29.899896
716 2 9.923078 5.276328 42.680104
717 2 9.923078 5.276328 55.461088
718 2 9.640272 6.132768 21.482451
719 2 9.640272 6.132768 34.262658
720 2 9.640272 6.132768 47.043642
721 2 8.209908 2.871853 21.866579
722 2 8.209908 2.871853 34.646786
723 2 8.209908 2.871853 47.42777
724 2 10.506971 3.2906 21.999278
725 2 10.506971 3.2906 34.779485
726 2 10.506971 3.2906 47.560469
727 2 7.802233 4.351044 21.250422
728 2 7.802233 4.351044 34.03063
729 2 7.802233 4.351044 46.811613
730 2 11.104869 5.537807 21.9403
731 2 11.104869 5.537807 34.721284
732 2 11.104869 5.537807 47.501491
733 2 3.404165 8.84167 29.210794
734 2 3.404165 8.84167 41.991002
735 2 3.404165 8.84167 54.771985
736 2 4.321823 10.188858 29.095944
737 2 4.321823 10.188858 41.876927
738 2 4.321823 10.188858 54.657911
739 2 3.387049 11.825947 27.152024
740 2 3.387049 11.825947 39.933007
741 2 3.387049 11.825947 52.713991
742 2 1.914673 9.305891 27.789909
743 2 1.914673 9.305891 40.570116
744 2 1.914673 9.305891 53.3511
745 2 1.923231 11.01814 26.430329
746 2 1.923231 11.01814 39.211312
747 2 1.923231 11.01814 51.992296
748 2 2.268276 9.85664 23.408523
749 2 2.268276 9.85664 36.189506
750 2 2.268276 9.85664 48.97049
751 2 2.681787 11.583416 23.402315
752 2 2.681787 11.583416 36.182522
753 2 2.681787 11.583416 48.963506
754 2 3.648459 12.256062 21.300863
755 2 3.648459 12.256062 34.081847
756 2 3.648459 12.256062 46.86283
757 2 2.91441 9.41263 21.282239
758 2 2.91441 9.41263 34.062446
759 2 2.91441 9.41263 46.84343
760 2 3.82351 11.021298 20.00026
761 2 3.82351 11.021298 32.780468
762 2 3.82351 11.021298 45.561451
763 2 11.758783 11.25625 28.716472
764 2 11.758783 11.25625 41.497456
765 2 11.758783 11.25625 54.278439
766 2 11.211844 10.230543 30.079156
767 2 11.211844 10.230543 42.86014
768 2 11.211844 10.230543 55.641123
769 2 8.239084 9.575581 27.95132
770 2 8.239084 9.575581 40.731528
771 2 8.239084 9.575581 53.512511
772 2 8.770073 9.470737 29.688044
773 2 8.770073 9.470737 42.469028
774 2 8.770073 9.470737 55.250011
775 2 10.217553 10.516655 27.270754
776 2 10.217553 10.516655 40.051738
777 2 10.217553 10.516655 52.831945
778 2 11.669701 10.999824 20.84379
779 2 11.669701 10.999824 33.624773
780 2 11.669701 10.999824 46.405757
781 2 8.132108 10.581709 22.669755
782 2 8.132108 10.581709 35.450739
783 2 8.132108 10.581709 48.231722
784 2 11.786402 10.099172 22.372541
785 2 11.786402 10.099172 35.153525
786 2 11.786402 10.099172 47.934508
787 2 9.360579 9.52758 23.292896
788 2 9.360579 9.52758 36.07388
789 2 9.360579 9.52758 48.854087
790 2 9.376917 10.977086 20.728939
791 2 9.376917 10.977086 33.509923
792 2 9.376917 10.977086 46.290906
793 6 6.273062 0.973916 31.317678
794 6 6.273062 0.973916 44.098661
795 6 6.273062 0.973916 56.878869
796 6 6.564037 0.815387 25.020308
797 6 6.564037 0.815387 37.801291
798 6 6.564037 0.815387 50.582275
799 6 12.891559 1.214553 31.590835
800 6 12.891559 1.214553 44.371819
801 6 12.891559 1.214553 57.152802
802 6 12.705616 1.400242 24.837944
803 6 12.705616 1.400242 37.618928
804 6 12.705616 1.400242 50.399911
805 6 0.303811 7.514694 25.23216
806 6 0.303811 7.514694 38.013144
807 6 0.303811 7.514694 50.794127
808 6 0.018283 7.40227 31.638948
809 6 0.018283 7.40227 44.419932
810 6 0.018283 7.40227 57.200915
811 6 6.752314 7.010051 25.178615
812 6 6.752314 7.010051 37.959599
813 6 6.752314 7.010051 50.740582
814 6 6.655452 7.3189 31.562123
815 6 6.655452 7.3189 44.343106
816 6 6.655452 7.3189 57.12409
817 3 3.027999 1.488665 31.4496
818 3 3.027999 1.488665 44.229808
819 3 3.027999 1.488665 57.010791
820 3 6.046274 0.84065 28.388993
821 3 6.046274 0.84065 41.169977
822 3 6.046274 0.84065 53.95096
823 3 6.522024 3.924719 25.023412
824 3 6.522024 3.924719 37.804395
825 3 6.522024 3.924719 50.585379
826 3 3.02372 1.278976 25.031948
827 3 3.02372 1.278976 37.812156
828 3 3.02372 1.278976 50.593139
829 3 6.248166 1.152026 21.872787
830 3 6.248166 1.152026 34.652994
831 3 6.248166 1.152026 47.433978
832 3 12.714563 1.22908 27.942784
833 3 12.714563 1.22908 40.722992
834 3 12.714563 1.22908 53.503975
835 3 6.714581 4.019458 31.453481
836 3 6.714581 4.019458 44.234464
837 3 6.714581 4.019458 57.014672
838 3 9.756584 0.730753 31.101945
839 3 9.756584 0.730753 43.882929
840 3 9.756584 0.730753 56.663912
841 3 12.352401 0.993496 21.799065
842 3 12.352401 0.993496 34.580049
843 3 12.352401 0.993496 47.360256
844 3 12.597473 4.344097 25.13283
845 3 12.597473 4.344097 37.913814
846 3 12.597473 4.344097 50.694797
847 3 12.856938 4.239884 32.040149
848 3 12.856938 4.239884 44.821132
849 3 12.856938 4.239884 57.60134
850 3 9.624712 0.960021 24.920978
851 3 9.624712 0.960021 37.701185
852 3 9.624712 0.960021 50.482169
853 3 3.327921 6.557199 25.951527
854 3 3.327921 6.557199 38.732511
855 3 3.327921 6.557199 51.513494
856 3 0.118646 7.117422 28.488323
857 3 0.118646 7.117422 41.269307
858 3 0.118646 7.117422 54.049514
859 3 6.374203 6.888785 28.545749
860 3 6.374203 6.888785 41.326732
861 3 6.374203 6.888785 54.10694
862 3 0.406508 10.531182 31.879513
863 3 0.406508 10.531182 44.659721
864 3 0.406508 10.531182 57.440704
865 3 3.249342 6.943102 31.680077
866 3 3.249342 6.943102 44.461061
867 3 3.249342 6.943102 57.242044
868 3 6.391708 7.275951 22.093176
869 3 6.391708 7.275951 34.874159
870 3 6.391708 7.275951 47.655143
871 3 0.467582 7.443324 22.078431
872 3 0.467582 7.443324 34.858639
873 3 0.467582 7.443324 47.639622
874 3 6.559758 10.129489 25.381155
875 3 6.559758 10.129489 38.162139
876 3 6.559758 10.129489 50.943122
877 3 6.634446 10.228017 31.015031
878 3 6.634446 10.228017 43.796015
879 3 6.634446 10.228017 56.576222
880 3 10.05884 7.396586 24.650148
881 3 10.05884 7.396586 37.431132
882 3 10.05884 7.396586 50.212115
883 3 12.703282 10.416863 25.102566
884 3 12.703282 10.416863 37.883549
885 3 12.703282 10.416863 50.664533
886 3 9.707959 7.543747 31.704134
887 3 9.707959 7.543747 44.484341
888 3 9.707959 7.543747 57.265325
889 1 16.107058 4.371887 28.679223
890 1 16.107058 4.371887 41.460207
891 1 16.107058 4.371887 54.24119
892 1 16.342016 3.973352 22.174657
893 1 16.342016 3.973352 34.955641
894 1 16.342016 3.973352 47.736624
895 1 22.371952 4.222199 28.280351
896 1 22.371952 4.222199 41.061335
897 1 22.371952 4.222199 53.841542
898 1 22.753952 4.072512 21.736984
899 1 22.753952 4.072512 34.517968
900 1 22.753952 4.072512 47.298175
901 1 15.671764 9.994328 27.858198
902 1 15.671764 9.994328 40.639182
903 1 15.671764 9.994328 53.419389
904 1 16.030814 10.384652 21.754833
905 1 16.030814 10.384652 34.53504
906 1 16.030814 10.384652 47.316024
907 1 23.038314 10.269702 28.304408
908 1 23.038314 10.269702 41.085391
909 1 23.038314 10.269702 53.865599
910 1 22.827085 10.568446 21.646966
911 1 22.827085 10.568446 34.42795
912 1 22.827085 10.568446 47.208933
913 4 15.165671 4.038406 27.802325
914 4 15.165671 4.038406 40.583309
915 4 15.165671 4.038406 53.363516
916 4 17.281069 3.813559 28.749065
917 4 17.281069 3.813559 41.530048
918 4 17.281069 3.813559 54.311032
919 4 16.259936 4.146408 20.880263
920 4 16.259936 4.146408 33.661246
921 4 16.259936 4.146408 46.44223
922 4 15.460146 4.54747 23.025171
923 4 15.460146 4.54747 35.806154
924 4 15.460146 4.54747 48.586362
925 4 23.229314 4.887898 29.00903
926 4 23.229314 4.887898 41.789238
927 4 23.229314 4.887898 54.570221
928 4 22.667205 3.620923 27.14504
929 4 22.667205 3.620923 39.925247
930 4 22.667205 3.620923 52.706231
931 4 23.16863 5.322434 21.586437
932 4 23.16863 5.322434 34.366645
933 4 23.16863 5.322434 47.147628
934 4 21.535595 3.723872 21.465379
935 4 21.535595 3.723872 34.245586
936 4 21.535595 3.723872 47.02657
937 4 16.466108 9.753691 28.838307
938 4 16.466108 9.753691 41.618514
939 4 16.466108 9.753691 54.399498
940 4 15.685379 11.072457 27.117103
941 4 15.685379 11.072457 39.898087
942 4 15.685379 11.072457 52.678294
943 4 15.67332 10.620868 22.99025
944 4 15.67332 10.620868 35.770458
945 4 15.67332 10.620868 48.551441
946 4 16.491004 11.305515 20.911303
947 4 16.491004 11.305515 33.692287
948 4 16.491004 11.305515 46.47327
949 4 21.92771 9.751796 28.651287
950 4 21.92771 9.751796 41.43227
951 4 21.92771 9.751796 54.213254
952 4 24.081231 10.528024 29.082752
953 4 24.081231 10.528024 41.862959
954 4 24.081231 10.528024 54.643943
955 4 24.123632 10.484444 21.657831
956 4 24.123632 10.484444 34.438814
957 4 24.123632 10.484444 47.219798
958 4 21.992285 10.202122 22.605346
959 4 21.992285 10.202122 35.38633
960 4 21.992285 10.202122 48.167313
961 2 15.367175 3.288073 27.129519
962 2 15.367175 3.288073 39.910503
963 2 15.367175 3.288073 52.69071
964 2 17.43667 2.883222 28.319928
965 2 17.43667 2.883222 41.100911
966 2 17.43667 2.883222 53.881119
967 2 15.937842 5.249169 29.268219
968 2 15.937842 5.249169 42.048427
969 2 15.937842 5.249169 54.82941
970 2 14.332816 4.54368 27.831038
971 2 14.332816 4.54368 40.612021
972 2 14.332816 4.54368 53.393005
973 2 18.078136 4.287885 29.305468
974 2 18.078136 4.287885 42.086452
975 2 18.078136 4.287885 54.867435
976 2 15.451588 4.664314 20.516311
977 2 15.451588 4.664314 33.297295
978 2 15.451588 4.664314 46.078278
979 2 14.961444 5.290855 22.586722
980 2 14.961444 5.290855 35.367705
981 2 14.961444 5.290855 48.147913
982 2 17.091625 3.409339 22.60457
983 2 17.091625 3.409339 35.385554
984 2 17.091625 3.409339 48.165761
985 2 16.731797 3.533763 20.235393
986 2 16.731797 3.533763 33.016377
987 2 16.731797 3.533763 45.79736
988 2 15.832033 4.79758 23.916813
989 2 15.832033 4.79758 36.697021
990 2 15.832033 4.79758 49.478004
991 2 23.646714 3.739031 26.793504
992 2 23.646714 3.739031 39.574488
993 2 23.646714 3.739031 52.354695
994 2 22.081366 2.911012 26.749272
995 2 22.081366 2.911012 39.530255
996 2 22.081366 2.911012 52.310463
997 2 21.36599 4.118618 28.698624
998 2 21.36599 4.118618 41.479607
999 2 21.36599 4.118618 54.260591
1000 2 24.200655 4.964321 28.786314
1001 2 24.200655 4.964321 41.567297
1002 2 24.200655 4.964321 54.347505
1003 2 22.890104 5.276328 29.899896
1004 2 22.890104 5.276328 42.680104
1005 2 22.890104 5.276328 55.461088
1006 2 22.607298 6.132768 21.482451
1007 2 22.607298 6.132768 34.262658
1008 2 22.607298 6.132768 47.043642
1009 2 21.176545 2.871853 21.866579
1010 2 21.176545 2.871853 34.646786
1011 2 21.176545 2.871853 47.42777
1012 2 23.473997 3.2906 21.999278
1013 2 23.473997 3.2906 34.779485
1014 2 23.473997 3.2906 47.560469
1015 2 20.769259 4.351044 21.250422
1016 2 20.769259 4.351044 34.03063
1017 2 20.769259 4.351044 46.811613
1018 2 24.071506 5.537807 21.9403
1019 2 24.071506 5.537807 34.721284
1020 2 24.071506 5.537807 47.501491
1021 2 16.370802 8.84167 29.210794
1022 2 16.370802 8.84167 41.991002
1023 2 16.370802 8.84167 54.771985
1024 2 17.28846 10.188858 29.095944
1025 2 17.28846 10.188858 41.876927
1026 2 17.28846 10.188858 54.657911
1027 2 16.353686 11.825947 27.152024
1028 2 16.353686 11.825947 39.933007
1029 2 16.353686 11.825947 52.713991
1030 2 14.881699 9.305891 27.789909
1031 2 14.881699 9.305891 40.570116
1032 2 14.881699 9.305891 53.3511
1033 2 14.889868 11.01814 26.430329
1034 2 14.889868 11.01814 39.211312
1035 2 14.889868 11.01814 51.992296
1036 2 15.234913 9.85664 23.408523
1037 2 15.234913 9.85664 36.189506
1038 2 15.234913 9.85664 48.97049
1039 2 15.648813 11.583416 23.402315
1040 2 15.648813 11.583416 36.182522
1041 2 15.648813 11.583416 48.963506
1042 2 16.615096 12.256062 21.300863
1043 2 16.615096 12.256062 34.081847
1044 2 16.615096 12.256062 46.86283
1045 2 15.881436 9.41263 21.282239
1046 2 15.881436 9.41263 34.062446
1047 2 15.881436 9.41263 46.84343
1048 2 16.790536 11.021298 20.00026
1049 2 16.790536 11.021298 32.780468
1050 2 16.790536 11.021298 45.561451
1051 2 24.725809 11.25625 28.716472
1052 2 24.725809 11.25625 41.497456
1053 2 24.725809 11.25625 54.278439
1054 2 24.17887 10.230543 30.079156
1055 2 24.17887 10.230543 42.86014
1056 2 24.17887 10.230543 55.641123
1057 2 21.205721 9.575581 27.95132
1058 2 21.205721 9.575581 40.731528
1059 2 21.205721 9.575581 53.512511
1060 2 21.737099 9.470737 29.688044
1061 2 21.737099 9.470737 42.469028
1062 2 21.737099 9.470737 55.250011
1063 2 23.18419 10.516655 27.270754
1064 2 23.18419 10.516655 40.051738
1065 2 23.18419 10.516655 52.831945
1066 2 24.636727 10.999824 20.84379
1067 2 24.636727 10.999824 33.624773
1068 2 24.636727 10.999824 46.405757
1069 2 21.099134 10.581709 22.669755
1070 2 21.099134 10.581709 35.450739
1071 2 21.099134 10.581709 48.231722
1072 2 24.753428 10.099172 22.372541
1073 2 24.753428 10.099172 35.153525
1074 2 24.753428 10.099172 47.934508
1075 2 22.327605 9.52758 23.292896
1076 2 22.327605 9.52758 36.07388
1077 2 22.327605 9.52758 48.854087
1078 2 22.343554 10.977086 20.728939
1079 2 22.343554 10.977086 33.509923
1080 2 22.343554 10.977086 46.290906
1081 6 19.239699 0.973916 31.317678
1082 6 19.239699 0.973916 44.098661
1083 6 19.239699 0.973916 56.878869
1084 6 19.531063 0.815387 25.020308
1085 6 19.531063 0.815387 37.801291
1086 6 19.531063 0.815387 50.582275
1087 6 25.858196 1.214553 31.590835
1088 6 25.858196 1.214553 44.371819
1089 6 25.858196 1.214553 57.152802
1090 6 25.672642 1.400242 24.837944
1091 6 25.672642 1.400242 37.618928
1092 6 25.672642 1.400242 50.399911
1093 6 13.270448 7.514694 25.23216
1094 6 13.270448 7.514694 38.013144
1095 6 13.270448 7.514694 50.794127
1096 6 12.98492 7.40227 31.638948
1097 6 12.98492 7.40227 44.419932
1098 6 12.98492 7.40227 57.200915
1099 6 19.718951 7.010051 25.178615
1100 6 19.718951 7.010051 37.959599
1101 6 19.718951 7.010051 50.740582
1102 6 19.622478 7.3189 31.562123
1103 6 19.622478 7.3189 44.343106
1104 6 19.622478 7.3189 57.12409
1105 3 15.994636 1.488665 31.4496
1106 3 15.994636 1.488665 44.229808
1107 3 15.994636 1.488665 57.010791
1108 3 19.012911 0.84065 28.388993
1109 3 19.012911 0.84065 41.169977
1110 3 19.012911 0.84065 53.95096
1111 3 19.488661 3.924719 25.023412
1112 3 19.488661 3.924719 37.804395
1113 3 19.488661 3.924719 50.585379
1114 3 15.990357 1.278976 25.031948
1115 3 15.990357 1.278976 37.812156
1116 3 15.990357 1.278976 50.593139
1117 3 19.215192 1.152026 21.872787
1118 3 19.215192 1.152026 34.652994
1119 3 19.215192 1.152026 47.433978
1120 3 25.6812 1.22908 27.942784
1121 3 25.6812 1.22908 40.722992
1122 3 25.6812 1.22908 53.503975
1123 3 19.681218 4.019458 31.453481
1124 3 19.681218 4.019458 44.234464
1125 3 19.681218 4.019458 57.014672
1126 3 22.72361 0.730753 31.101945
1127 3 22.72361 0.730753 43.882929
1128 3 22.72361 0.730753 56.663912
1129 3 25.319038 0.993496 21.799065
1130 3 25.319038 0.993496 34.580049
1131 3 25.319038 0.993496 47.360256
1132 3 25.56411 4.344097 25.13283
1133 3 25.56411 4.344097 37.913814
1134 3 25.56411 4.344097 50.694797
1135 3 25.823964 4.239884 32.040149
1136 3 25.823964 4.239884 44.821132
1137 3 25.823964 4.239884 57.60134
1138 3 22.591349 0.960021 24.920978
1139 3 22.591349 0.960021 37.701185
1140 3 22.591349 0.960021 50.482169
1141 3 16.294558 6.557199 25.951527
1142 3 16.294558 6.557199 38.732511
1143 3 16.294558 6.557199 51.513494
1144 3 13.085283 7.117422 28.488323
1145 3 13.085283 7.117422 41.269307
1146 3 13.085283 7.117422 54.049514
1147 3 19.34084 6.888785 28.545749
1148 3 19.34084 6.888785 41.326732
1149 3 19.34084 6.888785 54.10694
1150 3 13.373145 10.531182 31.879513
1151 3 13.373145 10.531182 44.659721
1152 3 13.373145 10.531182 57.440704
1153 3 16.215979 6.943102 31.680077
1154 3 16.215979 6.943102 44.461061
1155 3 16.215979 6.943102 57.242044
1156 3 19.358345 7.275951 22.093176
1157 3 19.358345 7.275951 34.874159
1158 3 19.358345 7.275951 47.655143
1159 3 13.434608 7.443324 22.078431
1160 3 13.434608 7.443324 34.858639
1161 3 13.434608 7.443324 47.639622
1162 3 19.526784 10.129489 25.381155
1163 3 19.526784 10.129489 38.162139
1164 3 19.526784 10.129489 50.943122
1165 3 19.601472 10.228017 31.015031
1166 3 19.601472 10.228017 43.796015
1167 3 19.601472 10.228017 56.576222
1168 3 23.025477 7.396586 24.650148
1169 3 23.025477 7.396586 37.431132
1170 3 23.025477 7.396586 50.212115
1171 3 25.670308 10.416863 25.102566
1172 3 25.670308 10.416863 37.883549
1173 3 25.670308 10.416863 50.664533
1174 3 22.674596 7.543747 31.704134
1175 3 22.674596 7.543747 44.484341
1176 3 22.674596 7.543747 57.265325
1177 1 29.074084 4.371887 28.679223
1178 1 29.074084 4.371887 41.460207
1179 1 29.074084 4.371887 54.24119
1180 1 29.308653 3.973352 22.174657
1181 1 29.308653 3.973352 34.955641
1182 1 29.308653 3.973352 47.736624
1183 1 35.338589 4.222199 28.280351
1184 1 35.338589 4.222199 41.061335
1185 1 35.338589 4.222199 53.841542
1186 1 35.720978 4.072512 21.736984
1187 1 35.720978 4.072512 34.517968
1188 1 35.720978 4.072512 47.298175
1189 1 28.63879 9.994328 27.858198
1190 1 28.63879 9.994328 40.639182
1191 1 28.63879 9.994328 53.419389
1192 1 28.99784 10.384652 21.754833
1193 1 28.99784 10.384652 34.53504
1194 1 28.99784 10.384652 47.316024
1195 1 36.004951 10.269702 28.304408
1196 1 36.004951 10.269702 41.085391
1197 1 36.004951 10.269702 53.865599
1198 1 35.793722 10.568446 21.646966
1199 1 35.793722 10.568446 34.42795
1200 1 35.793722 10.568446 47.208933
1201 4 28.132697 4.038406 27.802325
1202 4 28.132697 4.038406 40.583309
1203 4 28.132697 4.038406 53.363516
1204 4 30.247706 3.813559 28.749065
1205 4 30.247706 3.813559 41.530048
1206 4 30.247706 3.813559 54.311032
1207 4 29.226573 4.146408 20.880263
1208 4 29.226573 4.146408 33.661246
1209 4 29.226573 4.146408 46.44223
1210 4 28.426783 4.54747 23.025171
1211 4 28.426783 4.54747 35.806154
1212 4 28.426783 4.54747 48.586362
1213 4 36.195951 4.887898 29.00903
1214 4 36.195951 4.887898 41.789238
1215 4 36.195951 4.887898 54.570221
1216 4 35.633842 3.620923 27.14504
1217 4 35.633842 3.620923 39.925247
1218 4 35.633842 3.620923 52.706231
1219 4 36.135267 5.322434 21.586437
1220 4 36.135267 5.322434 34.366645
1221 4 36.135267 5.322434 47.147628
1222 4 34.502232 3.723872 21.465379
1223 4 34.502232 3.723872 34.245586
1224 4 34.502232 3.723872 47.02657
1225 4 29.432745 9.753691 28.838307
1226 4 29.432745 9.753691 41.618514
1227 4 29.432745 9.753691 54.399498
1228 4 28.652016 11.072457 27.117103
1229 4 28.652016 11.072457 39.898087
1230 4 28.652016 11.072457 52.678294
1231 4 28.639957 10.620868 22.99025
1232 4 28.639957 10.620868 35.770458
1233 4 28.639957 10.620868 48.551441
1234 4 29.457641 11.305515 20.911303
1235 4 29.457641 11.305515 33.692287
1236 4 29.457641 11.305515 46.47327
1237 4 34.894347 9.751796 28.651287
1238 4 34.894347 9.751796 41.43227
1239 4 34.894347 9.751796 54.213254
1240 4 37.048257 10.528024 29.082752
1241 4 37.048257 10.528024 41.862959
1242 4 37.048257 10.528024 54.643943
1243 4 37.090269 10.484444 21.657831
1244 4 37.090269 10.484444 34.438814
1245 4 37.090269 10.484444 47.219798
1246 4 34.959311 10.202122 22.605346
1247 4 34.959311 10.202122 35.38633
1248 4 34.959311 10.202122 48.167313
1249 2 28.333812 3.288073 27.129519
1250 2 28.333812 3.288073 39.910503
1251 2 28.333812 3.288073 52.69071
1252 2 30.403696 2.883222 28.319928
1253 2 30.403696 2.883222 41.100911
1254 2 30.403696 2.883222 53.881119
1255 2 28.904868 5.249169 29.268219
1256 2 28.904868 5.249169 42.048427
1257 2 28.904868 5.249169 54.82941
1258 2 27.299453 4.54368 27.831038
1259 2 27.299453 4.54368 40.612021
1260 2 27.299453 4.54368 53.393005
1261 2 31.044773 4.287885 29.305468
1262 2 31.044773 4.287885 42.086452
1263 2 31.044773 4.287885 54.867435
1264 2 28.418225 4.664314 20.516311
1265 2 28.418225 4.664314 33.297295
1266 2 28.418225 4.664314 46.078278
1267 2 27.928081 5.290855 22.586722
1268 2 27.928081 5.290855 35.367705
1269 2 27.928081 5.290855 48.147913
1270 2 30.058262 3.409339 22.60457
1271 2 30.058262 3.409339 35.385554
1272 2 30.058262 3.409339 48.165761
1273 2 29.698823 3.533763 20.235393
1274 2 29.698823 3.533763 33.016377
1275 2 29.698823 3.533763 45.79736
1276 2 28.79867 4.79758 23.916813
1277 2 28.79867 4.79758 36.697021
1278 2 28.79867 4.79758 49.478004
1279 2 36.613351 3.739031 26.793504
1280 2 36.613351 3.739031 39.574488
1281 2 36.613351 3.739031 52.354695
1282 2 35.048003 2.911012 26.749272
1283 2 35.048003 2.911012 39.530255
1284 2 35.048003 2.911012 52.310463
1285 2 34.333016 4.118618 28.698624
1286 2 34.333016 4.118618 41.479607
1287 2 34.333016 4.118618 54.260591
1288 2 37.167681 4.964321 28.786314
1289 2 37.167681 4.964321 41.567297
1290 2 37.167681 4.964321 54.347505
1291 2 35.856741 5.276328 29.899896
1292 2 35.856741 5.276328 42.680104
1293 2 35.856741 5.276328 55.461088
1294 2 35.573935 6.132768 21.482451
1295 2 35.573935 6.132768 34.262658
1296 2 35.573935 6.132768 47.043642
1297 2 34.143182 2.871853 21.866579
1298 2 34.143182 2.871853 34.646786
1299 2 34.143182 2.871853 47.42777
1300 2 36.440634 3.2906 21.999278
1301 2 36.440634 3.2906 34.779485
1302 2 36.440634 3.2906 47.560469
1303 2 33.735896 4.351044 21.250422
1304 2 33.735896 4.351044 34.03063
1305 2 33.735896 4.351044 46.811613
1306 2 37.038143 5.537807 21.9403
1307 2 37.038143 5.537807 34.721284
1308 2 37.038143 5.537807 47.501491
1309 2 29.337439 8.84167 29.210794
1310 2 29.337439 8.84167 41.991002
1311 2 29.337439 8.84167 54.771985
1312 2 30.255486 10.188858 29.095944
1313 2 30.255486 10.188858 41.876927
1314 2 30.255486 10.188858 54.657911
1315 2 29.320712 11.825947 27.152024
1316 2 29.320712 11.825947 39.933007
1317 2 29.320712 11.825947 52.713991
1318 2 27.848336 9.305891 27.789909
1319 2 27.848336 9.305891 40.570116
1320 2 27.848336 9.305891 53.3511
1321 2 27.856505 11.01814 26.430329
1322 2 27.856505 11.01814 39.211312
1323 2 27.856505 11.01814 51.992296
1324 2 28.20155 9.85664 23.408523
1325 2 28.20155 9.85664 36.189506
1326 2 28.20155 9.85664 48.97049
1327 2 28.61545 11.583416 23.402315
1328 2 28.61545 11.583416 36.182522
1329 2 28.61545 11.583416 48.963506
1330 2 29.581733 12.256062 21.300863
1331 2 29.581733 12.256062 34.081847
1332 2 29.581733 12.256062 46.86283
1333 2 28.848073 9.41263 21.282239
1334 2 28.848073 9.41263 34.062446
1335 2 28.848073 9.41263 46.84343
1336 2 29.757173 11.021298 20.00026
1337 2 29.757173 11.021298 32.780468
1338 2 29.757173 11.021298 45.561451
1339 2 37.692446 11.25625 28.716472
1340 2 37.692446 11.25625 41.497456
1341 2 37.692446 11.25625 54.278439
1342 2 37.145507 10.230543 30.079156
1343 2 37.145507 10.230543 42.86014
1344 2 37.145507 10.230543 55.641123
1345 2 34.172747 9.575581 27.95132
1346 2 34.172747 9.575581 40.731528
1347 2 34.172747 9.575581 53.512511
1348 2 34.703736 9.470737 29.688044
1349 2 34.703736 9.470737 42.469028
1350 2 34.703736 9.470737 55.250011
1351 2 36.150827 10.516655 27.270754
1352 2 36.150827 10.516655 40.051738
1353 2 36.150827 10.516655 52.831945
1354 2 37.603364 10.999824 20.84379
1355 2 37.603364 10.999824 33.624773
1356 2 37.603364 10.999824 46.405757
1357 2 34.065771 10.581709 22.669755
1358 2 34.065771 10.581709 35.450739
1359 2 34.065771 10.581709 48.231722
1360 2 37.720065 10.099172 22.372541
1361 2 37.720065 10.099172 35.153525
1362 2 37.720065 10.099172 47.934508
1363 2 35.294242 9.52758 23.292896
1364 2 35.294242 9.52758 36.07388
1365 2 35.294242 9.52758 48.854087
1366 2 35.310191 10.977086 20.728939
1367 2 35.310191 10.977086 33.509923
1368 2 35.310191 10.977086 46.290906
1369 6 32.206336 0.973916 31.317678
1370 6 32.206336 0.973916 44.098661
1371 6 32.206336 0.973916 56.878869
1372 6 32.4977 0.815387 25.020308
1373 6 32.4977 0.815387 37.801291
1374 6 32.4977 0.815387 50.582275
1375 6 38.824833 1.214553 31.590835
1376 6 38.824833 1.214553 44.371819
1377 6 38.824833 1.214553 57.152802
1378 6 38.639279 1.400242 24.837944
1379 6 38.639279 1.400242 37.618928
1380 6 38.639279 1.400242 50.399911
1381 6 26.237085 7.514694 25.23216
1382 6 26.237085 7.514694 38.013144
1383 6 26.237085 7.514694 50.794127
1384 6 25.951946 7.40227 31.638948
1385 6 25.951946 7.40227 44.419932
1386 6 25.951946 7.40227 57.200915
1387 6 32.685977 7.010051 25.178615
1388 6 32.685977 7.010051 37.959599
1389 6 32.685977 7.010051 50.740582
1390 6 32.589115 7.3189 31.562123
1391 6 32.589115 7.3189 44.343106
1392 6 32.589115 7.3189 57.12409
1393 3 28.961273 1.488665 31.4496
1394 3 28.961273 1.488665 44.229808
1395 3 28.961273 1.488665 57.010791
1396 3 31.979548 0.84065 28.388993
1397 3 31.979548 0.84065 41.169977
1398 3 31.979548 0.84065 53.95096
1399 3 32.455298 3.924719 25.023412
1400 3 32.455298 3.924719 37.804395
1401 3 32.455298 3.924719 50.585379
1402 3 28.956994 1.278976 25.031948
1403 3 28.956994 1.278976 37.812156
1404 3 28.956994 1.278976 50.593139
1405 3 32.181829 1.152026 21.872787
1406 3 32.181829 1.152026 34.652994
1407 3 32.181829 1.152026 47.433978
1408 3 38.648226 1.22908 27.942784
1409 3 38.648226 1.22908 40.722992
1410 3 38.648226 1.22908 53.503975
1411 3 32.647855 4.019458 31.453481
1412 3 32.647855 4.019458 44.234464
1413 3 32.647855 4.019458 57.014672
1414 3 35.690247 0.730753 31.101945
1415 3 35.690247 0.730753 43.882929
1416 3 35.690247 0.730753 56.663912
1417 3 38.285675 0.993496 21.799065
1418 3 38.285675 0.993496 34.580049
1419 3 38.285675 0.993496 47.360256
1420 3 38.530747 4.344097 25.13283
1421 3 38.530747 4.344097 37.913814
1422 3 38.530747 4.344097 50.694797
1423 3 38.790601 4.239884 32.040149
1424 3 38.790601 4.239884 44.821132
1425 3 38.790601 4.239884 57.60134
1426 3 35.557986 0.960021 24.920978
1427 3 35.557986 0.960021 37.701185
1428 3 35.557986 0.960021 50.482169
1429 3 29.261195 6.557199 25.951527
1430 3 29.261195 6.557199 38.732511
1431 3 29.261195 6.557199 51.513494
1432 3 26.05192 7.117422 28.488323
1433 3 26.05192 7.117422 41.269307
1434 3 26.05192 7.117422 54.049514
1435 3 32.307477 6.888785 28.545749
1436 3 32.307477 6.888785 41.326732
1437 3 32.307477 6.888785 54.10694
1438 3 26.339782 10.531182 31.879513
1439 3 26.339782 10.531182 44.659721
1440 3 26.339782 10.531182 57.440704
1441 3 29.182616 6.943102 31.680077
1442 3 29.182616 6.943102 44.461061
1443 3 29.182616 6.943102 57.242044
1444 3 32.325371 7.275951 22.093176
1445 3 32.325371 7.275951 34.874159
1446 3 32.325371 7.275951 47.655143
1447 3 26.401245 7.443324 22.078431
1448 3 26.401245 7.443324 34.858639
1449 3 26.401245 7.443324 47.639622
1450 3 32.493421 10.129489 25.381155
1451 3 32.493421 10.129489 38.162139
1452 3 32.493421 10.129489 50.943122
1453 3 32.568109 10.228017 31.015031
1454 3 32.568109 10.228017 43.796015
1455 3 32.568109 10.228017 56.576222
1456 3 35.992503 7.396586 24.650148
1457 3 35.992503 7.396586 37.431132
1458 3 35.992503 7.396586 50.212115
1459 3 38.636945 10.416863 25.102566
1460 3 38.636945 10.416863 37.883549
1461 3 38.636945 10.416863 50.664533
1462 3 35.641233 7.543747 31.704134
1463 3 35.641233 7.543747 44.484341
1464 3 35.641233 7.543747 57.265325
1465 1 3.140421 17.003747 28.679223
1466 1 3.140421 17.003747 41.460207
1467 1 3.140421 17.003747 54.24119
1468 1 3.375379 16.605212 22.174657
1469 1 3.375379 16.605212 34.955641
1470 1 3.375379 16.605212 47.736624
1471 1 9.404926 16.854059 28.280351
1472 1 9.404926 16.854059 41.061335
1473 1 9.404926 16.854059 53.841542
1474 1 9.787315 16.704372 21.736984
1475 1 9.787315 16.704372 34.517968
1476 1 9.787315 16.704372 47.298175
1477 1 2.705127 22.626188 27.858198
1478 1 2.705127 22.626188 40.639182
1479 1 2.705127 22.626188 53.419389
1480 1 3.064177 23.016512 21.754833
1481 1 3.064177 23.016512 34.53504
1482 1 3.064177 23.016512 47.316024
1483 1 10.071288 22.901562 28.304408
1484 1 10.071288 22.901562 41.085391
1485 1 10.071288 22.901562 53.865599
1486 1 9.860448 23.200306 21.646966
1487 1 9.860448 23.200306 34.42795
1488 1 9.860448 23.200306 47.208933
1489 4 2.199034 16.670266 27.802325
1490 4 2.199034 16.670266 40.583309
1491 4 2.199034 16.670266 53.363516
1492 4 4.314432 16.445419 28.749065
1493 4 4.314432 16.445419 41.530048
1494 4 4.314432 16.445419 54.311032
1495 4 3.293299 16.778268 20.880263
1496 4 3.293299 16.778268 33.661246
1497 4 3.293299 16.778268 46.44223
1498 4 2.493509 17.17933 23.025171
1499 4 2.493509 17.17933 35.806154
1500 4 2.493509 17.17933 48.586362
1501 4 10.262677 17.519758 29.00903
1502 4 10.262677 17.519758 41.789238
1503 4 10.262677 17.519758 54.570221
1504 4 9.700568 16.252783 27.14504
1505 4 9.700568 16.252783 39.925247
1506 4 9.700568 16.252783 52.706231
1507 4 10.201993 17.954294 21.586437
1508 4 10.201993 17.954294 34.366645
1509 4 10.201993 17.954294 47.147628
1510 4 8.568569 16.355732 21.465379
1511 4 8.568569 16.355732 34.245586
1512 4 8.568569 16.355732 47.02657
1513 4 3.499471 22.385551 28.838307
1514 4 3.499471 22.385551 41.618514
1515 4 3.499471 22.385551 54.399498
1516 4 2.718353 23.704317 27.117103
1517 4 2.718353 23.704317 39.898087
1518 4 2.718353 23.704317 52.678294
1519 4 2.706683 23.252728 22.99025
1520 4 2.706683 23.252728 35.770458
1521 4 2.706683 23.252728 48.551441
1522 4 3.523978 23.937375 20.911303
1523 4 3.523978 23.937375 33.692287
1524 4 3.523978 23.937375 46.47327
1525 4 8.960684 22.383656 28.651287
1526 4 8.960684 22.383656 41.43227
1527 4 8.960684 22.383656 54.213254
1528 4 11.114594 23.159884 29.082752
1529 4 11.114594 23.159884 41.862959
1530 4 11.114594 23.159884 54.643943
1531 4 11.156606 23.116304 21.657831
1532 4 11.156606 23.116304 34.438814
1533 4 11.156606 23.116304 47.219798
1534 4 9.025648 22.833982 22.605346
1535 4 9.025648 22.833982 35.38633
1536 4 9.025648 22.833982 48.167313
1537 2 2.400538 15.919933 27.129519
1538 2 2.400538 15.919933 39.910503
1539 2 2.400538 15.919933 52.69071
1540 2 4.470033 15.515082 28.319928
1541 2 4.470033 15.515082 41.100911
1542 2 4.470033 15.515082 53.881119
1543 2 2.971205 17.881029 29.268219
1544 2 2.971205 17.881029 42.048427
1545 2 2.971205 17.881029 54.82941
1546 2 1.366179 17.17554 27.831038
1547 2 1.366179 17.17554 40.612021
1548 2 1.366179 17.17554 53.393005
1549 2 5.111499 16.919745 29.305468
1550 2 5.111499 16.919745 42.086452
1551 2 5.111499 16.919745 54.867435
1552 2 2.484951 17.296174 20.516311
1553 2 2.484951 17.296174 33.297295
1554 2 2.484951 17.296174 46.078278
1555 2 1.994807 17.922715 22.586722
1556 2 1.994807 17.922715 35.367705
1557 2 1.994807 17.922715 48.147913
1558 2 4.124599 16.041199 22.60457
1559 2 4.124599 16.041199 35.385554
1560 2 4.124599 16.041199 48.165761
1561 2 3.76516 16.165623 20.235393
1562 2 3.76516 16.165623 33.016377
1563 2 3.76516 16.165623 45.79736
1564 2 2.865007 17.42944 23.916813
1565 2 2.865007 17.42944 36.697021
1566 2 2.865007 17.42944 49.478004
1567 2 10.679688 16.370891 26.793504
1568 2 10.679688 16.370891 39.574488
1569 2 10.679688 16.370891 52.354695
1570 2 9.11434 15.542872 26.749272
1571 2 9.11434 15.542872 39.530255
1572 2 9.11434 15.542872 52.310463
1573 2 8.399353 16.750478 28.698624
1574 2 8.399353 16.750478 41.479607
1575 2 8.399353 16.750478 54.260591
1576 2 11.234018 17.596181 28.786314
1577 2 11.234018 17.596181 41.567297
1578 2 11.234018 17.596181 54.347505
1579 2 9.923078 17.908188 29.899896
1580 2 9.923078 17.908188 42.680104
1581 2 9.923078 17.908188 55.461088
1582 2 9.640272 18.764628 21.482451
1583 2 9.640272 18.764628 34.262658
1584 2 9.640272 18.764628 47.043642
1585 2 8.209908 15.503713 21.866579
1586 2 8.209908 15.503713 34.646786
1587 2 8.209908 15.503713 47.42777
1588 2 10.506971 15.92246 21.999278
1589 2 10.506971 15.92246 34.779485
1590 2 10.506971 15.92246 47.560469
1591 2 7.802233 16.982904 21.250422
1592 2 7.802233 16.982904 34.03063
1593 2 7.802233 16.982904 46.811613
1594 2 11.104869 18.169667 21.9403
1595 2 11.104869 18.169667 34.721284
1596 2 11.104869 18.169667 47.501491
1597 2 3.404165 21.47353 29.210794
1598 2 3.404165 21.47353 41.991002
1599 2 3.404165 21.47353 54.771985
1600 2 4.321823 22.820718 29.095944
1601 2 4.321823 22.820718 41.876927
1602 2 4.321823 22.820718 54.657911
1603 2 3.387049 24.457807 27.152024
1604 2 3.387049 24.457807 39.933007
1605 2 3.387049 24.457807 52.713991
1606 2 1.914673 21.937751 27.789909
1607 2 1.914673 21.937751 40.570116
1608 2 1.914673 21.937751 53.3511
1609 2 1.923231 23.65 26.430329
1610 2 1.923231 23.65 39.211312
1611 2 1.923231 23.65 51.992296
1612 2 2.268276 22.4885 23.408523
1613 2 2.268276 22.4885 36.189506
1614 2 2.268276 22.4885 48.97049
1615 2 2.681787 24.215276 23.402315
1616 2 2.681787 24.215276 36.182522
1617 2 2.681787 24.215276 48.963506
1618 2 3.648459 24.887922 21.300863
1619 2 3.648459 24.887922 34.081847
1620 2 3.648459 24.887922 46.86283
1621 2 2.91441 22.04449 21.282239
1622 2 2.91441 22.04449 34.062446
1623 2 2.91441 22.04449 46.84343
1624 2 3.82351 23.653158 20.00026
1625 2 3.82351 23.653158 32.780468
1626 2 3.82351 23.653158 45.561451
1627 2 11.758783 23.88811 28.716472
1628 2 11.758783 23.88811 41.497456
1629 2 11.758783 23.88811 54.278439
1630 2 11.211844 22.862403 30.079156
1631 2 11.211844 22.862403 42.86014
1632 2 11.211844 22.862403 55.641123
1633 2 8.239084 22.207441 27.95132
1634 2 8.239084 22.207441 40.731528
1635 2 8.239084 22.207441 53.512511
1636 2 8.770073 22.102597 29.688044
1637 2 8.770073 22.102597 42.469028
1638 2 8.770073 22.102597 55.250011
1639 2 10.217553 23.148515 27.270754
1640 2 10.217553 23.148515 40.051738
1641 2 10.217553 23.148515 52.831945
1642 2 11.669701 23.631684 20.84379
1643 2 11.669701 23.631684 33.624773
1644 2 11.669701 23.631684 46.405757
1645 2 8.132108 23.213569 22.669755
1646 2 8.132108 23.213569 35.450739
1647 2 8.132108 23.213569 48.231722
1648 2 11.786402 22.731032 22.372541
1649 2 11.786402 22.731032 35.153525
1650 2 11.786402 22.731032 47.934508
1651 2 9.360579 22.15944 23.292896
1652 2 9.360579 22.15944 36.07388
1653 2 9.360579 22.15944 48.854087
1654 2 9.376917 23.608946 20.728939
1655 2 9.376917 23.608946 33.509923
1656 2 9.376917 23.608946 46.290906
1657 6 6.273062 13.605776 31.317678
1658 6 6.273062 13.605776 44.098661
1659 6 6.273062 13.605776 56.878869
1660 6 6.564037 13.447247 25.020308
1661 6 6.564037 13.447247 37.801291
1662 6 6.564037 13.447247 50.582275
1663 6 12.891559 13.846413 31.590835
1664 6 12.891559 13.846413 44.371819
1665 6 12.891559 13.846413 57.152802
1666 6 12.705616 14.032102 24.837944
1667 6 12.705616 14.032102 37.618928
1668 6 12.705616 14.032102 50.399911
1669 6 0.303811 20.146554 25.23216
1670 6 0.303811 20.146554 38.013144
1671 6 0.303811 20.146554 50.794127
1672 6 0.018283 20.03413 31.638948
1673 6 0.018283 20.03413 44.419932
1674 6 0.018283 20.03413 57.200915
1675 6 6.752314 19.641911 25.178615
1676 6 6.752314 19.641911 37.959599
1677 6 6.752314 19.641911 50.740582
1678 6 6.655452 19.95076 31.562123
1679 6 6.655452 19.95076 44.343106
1680 6 6.655452 19.95076 57.12409
1681 3 3.027999 14.120525 31.4496
1682 3 3.027999 14.120525 44.229808
1683 3 3.027999 14.120525 57.010791
1684 3 6.046274 13.47251 28.388993
1685 3 6.046274 13.47251 41.169977
1686 3 6.046274 13.47251 53.95096
1687 3 6.522024 16.556579 25.023412
1688 3 6.522024 16.556579 37.804395
1689 3 6.522024 16.556579 50.585379
1690 3 3.02372 13.910836 25.031948
1691 3 3.02372 13.910836 37.812156
1692 3 3.02372 13.910836 50.593139
1693 3 6.248166 13.783886 21.872787
1694 3 6.248166 13.783886 34.652994
1695 3 6.248166 13.783886 47.433978
1696 3 12.714563 13.86094 27.942784
1697 3 12.714563 13.86094 40.722992
1698 3 12.714563 13.86094 53.503975
1699 3 6.714581 16.651318 31.453481
1700 3 6.714581 16.651318 44.234464
1701 3 6.714581 16.651318 57.014672
1702 3 9.756584 13.362613 31.101945
1703 3 9.756584 13.362613 43.882929
1704 3 9.756584 13.362613 56.663912
1705 3 12.352401 13.625356 21.799065
1706 3 12.352401 13.625356 34.580049
1707 3 12.352401 13.625356 47.360256
1708 3 12.597473 16.975957 25.13283
1709 3 12.597473 16.975957 37.913814
1710 3 12.597473 16.975957 50.694797
1711 3 12.856938 16.871744 32.040149
1712 3 12.856938 16.871744 44.821132
1713 3 12.856938 16.871744 57.60134
1714 3 9.624712 13.591881 24.920978
1715 3 9.624712 13.591881 37.701185
1716 3 9.624712 13.591881 50.482169
1717 3 3.327921 19.189059 25.951527
1718 3 3.327921 19.189059 38.732511
1719 3 3.327921 19.189059 51.513494
1720 3 0.118646 19.749282 28.488323
1721 3 0.118646 19.749282 41.269307
1722 3 0.118646 19.749282 54.049514
1723 3 6.374203 19.520645 28.545749
1724 3 6.374203 19.520645 41.326732
1725 3 6.374203 19.520645 54.10694
1726 3 0.406508 23.163042 31.879513
1727 3 0.406508 23.163042 44.659721
1728 3 0.406508 23.163042 57.440704
1729 3 3.249342 19.574962 31.680077
1730 3 3.249342 19.574962 44.461061
1731 3 3.249342 19.574962 57.242044
1732 3 6.391708 19.907811 22.093176
1733 3 6.391708 19.907811 34.874159
1734 3 6.391708 19.907811 47.655143
1735 3 0.467582 20.075184 22.078431
1736 3 0.467582 20.075184 34.858639
1737 3 0.467582 20.075184 47.639622
1738 3 6.559758 22.761349 25.381155
1739 3 6.559758 22.761349 38.162139
1740 3 6.559758 22.761349 50.943122
1741 3 6.634446 22.859877 31.015031
1742 3 6.634446 22.859877 43.796015
1743 3 6.634446 22.859877 56.576222
1744 3 10.05884 20.028446 24.650148
1745 3 10.05884 20.028446 37.431132
1746 3 10.05884 20.028446 50.212115
1747 3 12.703282 23.048723 25.102566
1748 3 12.703282 23.048723 37.883549
1749 3 12.703282 23.048723 50.664533
1750 3 9.707959 20.175607 31.704134
1751 3 9.707959 20.175607 44.484341
1752 3 9.707959 20.175607 57.265325
1753 1 16.107058 17.003747 28.679223
1754 1 16.107058 17.003747 41.460207
1755 1 16.107058 17.003747 54.24119
1756 1 16.342016 16.605212 22.174657
1757 1 16.342016 16.605212 34.955641
1758 1 16.342016 16.605212 47.736624
1759 1 22.371952 16.854059 28.280351
1760 1 22.371952 16.854059 41.061335
1761 1 22.371952 16.854059 53.841542
1762 1 22.753952 16.704372 21.736984
1763 1 22.753952 16.704372 34.517968
1764 1 22.753952 16.704372 47.298175
1765 1 15.671764 22.626188 27.858198
1766 1 15.671764 22.626188 40.639182
1767 1 15.671764 22.626188 53.419389
1768 1 16.030814 23.016512 21.754833
1769 1 16.030814 23.016512 34.53504
1770 1 16.030814 23.016512 47.316024
1771 1 23.038314 22.901562 28.304408
1772 1 23.038314 22.901562 41.085391
1773 1 23.038314 22.901562 53.865599
1774 1 22.827085 23.200306 21.646966
1775 1 22.827085 23.200306 34.42795
1776 1 22.827085 23.200306 47.208933
1777 4 15.165671 16.670266 27.802325
1778 4 15.165671 16.670266 40.583309
1779 4 15.165671 16.670266 53.363516
1780 4 17.281069 16.445419 28.749065
1781 4 17.281069 16.445419 41.530048
1782 4 17.281069 16.445419 54.311032
1783 4 16.259936 16.778268 20.880263
1784 4 16.259936 16.778268 33.661246
1785 4 16.259936 16.778268 46.44223
1786 4 15.460146 17.17933 23.025171
1787 4 15.460146 17.17933 35.806154
1788 4 15.460146 17.17933 48.586362
1789 4 23.229314 17.519758 29.00903
1790 4 23.229314 17.519758 41.789238
1791 4 23.229314 17.519758 54.570221
1792 4 22.667205 16.252783 27.14504
1793 4 22.667205 16.252783 39.925247
1794 4 22.667205 16.252783 52.706231
1795 4 23.16863 17.954294 21.586437
1796 4 23.16863 17.954294 34.366645
1797 4 23.16863 17.954294 47.147628
1798 4 21.535595 16.355732 21.465379
1799 4 21.535595 16.355732 34.245586
1800 4 21.535595 16.355732 47.02657
1801 4 16.466108 22.385551 28.838307
1802 4 16.466108 22.385551 41.618514
1803 4 16.466108 22.385551 54.399498
1804 4 15.685379 23.704317 27.117103
1805 4 15.685379 23.704317 39.898087
1806 4 15.685379 23.704317 52.678294
1807 4 15.67332 23.252728 22.99025
1808 4 15.67332 23.252728 35.770458
1809 4 15.67332 23.252728 48.551441
1810 4 16.491004 23.937375 20.911303
1811 4 16.491004 23.937375 33.692287
1812 4 16.491004 23.937375 46.47327
1813 4 21.92771 22.383656 28.651287
1814 4 21.92771 22.383656 41.43227
1815 4 21.92771 22.383656 54.213254
1816 4 24.081231 23.159884 29.082752
1817 4 24.081231 23.159884 41.862959
1818 4 24.081231 23.159884 54.643943
1819 4 24.123632 23.116304 21.657831
1820 4 24.123632 23.116304 34.438814
1821 4 24.123632 23.116304 47.219798
1822 4 21.992285 22.833982 22.605346
1823 4 21.992285 22.833982 35.38633
1824 4 21.992285 22.833982 48.167313
1825 2 15.367175 15.919933 27.129519
1826 2 15.367175 15.919933 39.910503
1827 2 15.367175 15.919933 52.69071
1828 2 17.43667 15.515082 28.319928
1829 2 17.43667 15.515082 41.100911
1830 2 17.43667 15.515082 53.881119
1831 2 15.937842 17.881029 29.268219
1832 2 15.937842 17.881029 42.048427
1833 2 15.937842 17.881029 54.82941
1834 2 14.332816 17.17554 27.831038
1835 2 14.332816 17.17554 40.612021
1836 2 14.332816 17.17554 53.393005
1837 2 18.078136 16.919745 29.305468
1838 2 18.078136 16.919745 42.086452
1839 2 18.078136 16.919745 54.867435
1840 2 15.451588 17.296174 20.516311
1841 2 15.451588 17.296174 33.297295
1842 2 15.451588 17.296174 46.078278
1843 2 14.961444 17.922715 22.586722
1844 2 14.961444 17.922715 35.367705
1845 2 14.961444 17.922715 48.147913
1846 2 17.091625 16.041199 22.60457
1847 2 17.091625 16.041199 35.385554
1848 2 17.091625 16.041199 48.165761
1849 2 16.731797 16.165623 20.235393
1850 2 16.731797 16.165623 33.016377
1851 2 16.731797 16.165623 45.79736
1852 2 15.832033 17.42944 23.916813
1853 2 15.832033 17.42944 36.697021
1854 2 15.832033 17.42944 49.478004
1855 2 23.646714 16.370891 26.793504
1856 2 23.646714 16.370891 39.574488
1857 2 23.646714 16.370891 52.354695
1858 2 22.081366 15.542872 26.749272
1859 2 22.081366 15.542872 39.530255
1860 2 22.081366 15.542872 52.310463
1861 2 21.36599 16.750478 28.698624
1862 2 21.36599 16.750478 41.479607
1863 2 21.36599 16.750478 54.260591
1864 2 24.200655 17.596181 28.786314
1865 2 24.200655 17.596181 41.567297
1866 2 24.200655 17.596181 54.347505
1867 2 22.890104 17.908188 29.899896
1868 2 22.890104 17.908188 42.680104
1869 2 22.890104 17.908188 55.461088
1870 2 22.607298 18.764628 21.482451
1871 2 22.607298 18.764628 34.262658
1872 2 22.607298 18.764628 47.043642
1873 2 21.176545 15.503713 21.866579
1874 2 21.176545 15.503713 34.646786
1875 2 21.176545 15.503713 47.42777
1876 2 23.473997 15.92246 21.999278
1877 2 23.473997 15.92246 34.779485
1878 2 23.473997 15.92246 47.560469
1879 2 20.769259 16.982904 21.250422
1880 2 20.769259 16.982904 34.03063
1881 2 20.769259 16.982904 46.811613
1882 2 24.071506 18.169667 21.9403
1883 2 24.071506 18.169667 34.721284
1884 2 24.071506 18.169667 47.501491
1885 2 16.370802 21.47353 29.210794
1886 2 16.370802 21.47353 41.991002
1887 2 16.370802 21.47353 54.771985
1888 2 17.28846 22.820718 29.095944
1889 2 17.28846 22.820718 41.876927
1890 2 17.28846 22.820718 54.657911
1891 2 16.353686 24.457807 27.152024
1892 2 16.353686 24.457807 39.933007
1893 2 16.353686 24.457807 52.713991
1894 2 14.881699 21.937751 27.789909
1895 2 14.881699 21.937751 40.570116
1896 2 14.881699 21.937751 53.3511
1897 2 14.889868 23.65 26.430329
1898 2 14.889868 23.65 39.211312
1899 2 14.889868 23.65 51.992296
1900 2 15.234913 22.4885 23.408523
1901 2 15.234913 22.4885 36.189506
1902 2 15.234913 22.4885 48.97049
1903 2 15.648813 24.215276 23.402315
1904 2 15.648813 24.215276 36.182522
1905 2 15.648813 24.215276 48.963506
1906 2 16.615096 24.887922 21.300863
1907 2 16.615096 24.887922 34.081847
1908 2 16.615096 24.887922 46.86283
1909 2 15.881436 22.04449 21.282239
1910 2 15.881436 22.04449 34.062446
1911 2 15.881436 22.04449 46.84343
1912 2 16.790536 23.653158 20.00026
1913 2 16.790536 23.653158 32.780468
1914 2 16.790536 23.653158 45.561451
1915 2 24.725809 23.88811 28.716472
1916 2 24.725809 23.88811 41.497456
1917 2 24.725809 23.88811 54.278439
1918 2 24.17887 22.862403 30.079156
1919 2 24.17887 22.862403 42.86014
1920 2 24.17887 22.862403 55.641123
1921 2 21.205721 22.207441 27.95132
1922 2 21.205721 22.207441 40.731528
1923 2 21.205721 22.207441 53.512511
1924 2 21.737099 22.102597 29.688044
1925 2 21.737099 22.102597 42.469028
1926 2 21.737099 22.102597 55.250011
1927 2 23.18419 23.148515 27.270754
1928 2 23.18419 23.148515 40.051738
1929 2 23.18419 23.148515 52.831945
1930 2 24.636727 23.631684 20.84379
1931 2 24.636727 23.631684 33.624773
1932 2 24.636727 23.631684 46.405757
1933 2 21.099134 23.213569 22.669755
1934 2 21.099134 23.213569 35.450739
1935 2 21.099134 23.213569 48.231722
1936 2 24.753428 22.731032 22.372541
1937 2 24.753428 22.731032 35.153525
1938 2 24.753428 22.731032 47.934508
1939 2 22.327605 22.15944 23.292896
1940 2 22.327605 22.15944 36.07388
1941 2 22.327605 22.15944 48.854087
1942 2 22.343554 23.608946 20.728939
1943 2 22.343554 23.608946 33.509923
1944 2 22.343554 23.608946 46.290906
1945 6 19.239699 13.605776 31.317678
1946 6 19.239699 13.605776 44.098661
1947 6 19.239699 13.605776 56.878869
1948 6 19.531063 13.447247 25.020308
1949 6 19.531063 13.447247 37.801291
1950 6 19.531063 13.447247 50.582275
1951 6 25.858196 13.846413 31.590835
1952 6 25.858196 13.846413 44.371819
1953 6 25.858196 13.846413 57.152802
1954 6 25.672642 14.032102 24.837944
1955 6 25.672642 14.032102 37.618928
1956 6 25.672642 14.032102 50.399911
1957 6 13.270448 20.146554 25.23216
1958 6 13.270448 20.146554 38.013144
1959 6 13.270448 20.146554 50.794127
1960 6 12.98492 20.03413 31.638948
1961 6 12.98492 20.03413 44.419932
1962 6 12.98492 20.03413 57.200915
1963 6 19.718951 19.641911 25.178615
1964 6 19.718951 19.641911 37.959599
1965 6 19.718951 19.641911 50.740582
1966 6 19.622478 19.95076 31.562123
1967 6 19.622478 19.95076 44.343106
1968 6 19.622478 19.95076 57.12409
1969 3 15.994636 14.120525 31.4496
1970 3 15.994636 14.120525 44.229808
1971 3 15.994636 14.120525 57.010791
1972 3 19.012911 13.47251 28.388993
1973 3 19.012911 13.47251 41.169977
1974 3 19.012911 13.47251 53.95096
1975 3 19.488661 16.556579 25.023412
1976 3 19.488661 16.556579 37.804395
1977 3 19.488661 16.556579 50.585379
1978 3 15.990357 13.910836 25.031948
1979 3 15.990357 13.910836 37.812156
1980 3 15.990357 13.910836 50.593139
1981 3 19.215192 13.783886 21.872787
1982 3 19.215192 13.783886 34.652994
1983 3 19.215192 13.783886 47.433978
1984 3 25.6812 13.86094 27.942784
1985 3 25.6812 13.86094 40.722992
1986 3 25.6812 13.86094 53.503975
1987 3 19.681218 16.651318 31.453481
1988 3 19.681218 16.651318 44.234464
1989 3 19.681218 16.651318 57.014672
1990 3 22.72361 13.362613 31.101945
1991 3 22.72361 13.362613 43.882929
1992 3 22.72361 13.362613 56.663912
1993 3 25.319038 13.625356 21.799065
1994 3 25.319038 13.625356 34.580049
1995 3 25.319038 13.625356 47.360256
1996 3 25.56411 16.975957 25.13283
1997 3 25.56411 16.975957 37.913814
1998 3 25.56411 16.975957 50.694797
1999 3 25.823964 16.871744 32.040149
2000 3 25.823964 16.871744 44.821132
2001 3 25.823964 16.871744 57.60134
2002 3 22.591349 13.591881 24.920978
2003 3 22.591349 13.591881 37.701185
2004 3 22.591349 13.591881 50.482169
2005 3 16.294558 19.189059 25.951527
2006 3 16.294558 19.189059 38.732511
2007 3 16.294558 19.189059 51.513494
2008 3 13.085283 19.749282 28.488323
2009 3 13.085283 19.749282 41.269307
2010 3 13.085283 19.749282 54.049514
2011 3 19.34084 19.520645 28.545749
2012 3 19.34084 19.520645 41.326732
2013 3 19.34084 19.520645 54.10694
2014 3 13.373145 23.163042 31.879513
2015 3 13.373145 23.163042 44.659721
2016 3 13.373145 23.163042 57.440704
2017 3 16.215979 19.574962 31.680077
2018 3 16.215979 19.574962 44.461061
2019 3 16.215979 19.574962 57.242044
2020 3 19.358345 19.907811 22.093176
2021 3 19.358345 19.907811 34.874159
2022 3 19.358345 19.907811 47.655143
2023 3 13.434608 20.075184 22.078431
2024 3 13.434608 20.075184 34.858639
2025 3 13.434608 20.075184 47.639622
2026 3 19.526784 22.761349 25.381155
2027 3 19.526784 22.761349 38.162139
2028 3 19.526784 22.761349 50.943122
2029 3 19.601472 22.859877 31.015031
2030 3 19.601472 22.859877 43.796015
2031 3 19.601472 22.859877 56.576222
2032 3 23.025477 20.028446 24.650148
2033 3 23.025477 20.028446 37.431132
2034 3 23.025477 20.028446 50.212115
2035 3 25.670308 23.048723 25.102566
2036 3 25.670308 23.048723 37.883549
2037 3 25.670308 23.048723 50.664533
2038 3 22.674596 20.175607 31.704134
2039 3 22.674596 20.175607 44.484341
2040 3 22.674596 20.175607 57.265325
2041 1 29.074084 17.003747 28.679223
2042 1 29.074084 17.003747 41.460207
2043 1 29.074084 17.003747 54.24119
2044 1 29.308653 16.605212 22.174657
2045 1 29.308653 16.605212 34.955641
2046 1 29.308653 16.605212 47.736624
2047 1 35.338589 16.854059 28.280351
2048 1 35.338589 16.854059 41.061335
2049 1 35.338589 16.854059 53.841542
2050 1 35.720978 16.704372 21.736984
2051 1 35.720978 16.704372 34.517968
2052 1 35.720978 16.704372 47.298175
2053 1 28.63879 22.626188 27.858198
2054 1 28.63879 22.626188 40.639182
2055 1 28.63879 22.626188 53.419389
2056 1 28.99784 23.016512 21.754833
2057 1 28.99784 23.016512 34.53504
2058 1 28.99784 23.016512 47.316024
2059 1 36.004951 22.901562 28.304408
2060 1 36.004951 22.901562 41.085391
2061 1 36.004951 22.901562 53.865599
2062 1 35.793722 23.200306 21.646966
2063 1 35.793722 23.200306 34.42795
2064 1 35.793722 23.200306 47.208933
2065 4 28.132697 16.670266 27.802325
2066 4 28.132697 16.670266 40.583309
2067 4 28.132697 16.670266 53.363516
2068 4 30.247706 16.445419 28.749065
2069 4 30.247706 16.445419 41.530048
2070 4 30.247706 16.445419 54.311032
2071 4 29.226573 16.778268 20.880263
2072 4 29.226573 16.778268 33.661246
2073 4 29.226573 16.778268 46.44223
2074 4 28.426783 17.17933 23.025171
2075 4 28.426783 17.17933 35.806154
2076 4 28.426783 17.17933 48.586362
2077 4 36.195951 17.519758 29.00903
2078 4 36.195951 17.519758 41.789238
2079 4 36.195951 17.519758 54.570221
2080 4 35.633842 16.252783 27.14504
2081 4 35.633842 16.252783 39.925247
2082 4 35.633842 16.252783 52.706231
2083 4 36.135267 17.954294 21.586437
2084 4 36.135267 17.954294 34.366645
2085 4 36.135267 17.954294 47.147628
2086 4 34.502232 16.355732 21.465379
2087 4 34.502232 16.355732 34.245586
2088 4 34.502232 16.355732 47.02657
2089 4 29.432745 22.385551 28.838307
2090 4 29.432745 22.385551 41.618514
2091 4 29.432745 22.385551 54.399498
2092 4 28.652016 23.704317 27.117103
2093 4 28.652016 23.704317 39.898087
2094 4 28.652016 23.704317 52.678294
2095 4 28.639957 23.252728 22.99025
2096 4 28.639957 23.252728 35.770458
2097 4 28.639957 23.252728 48.551441
2098 4 29.457641 23.937375 20.911303
2099 4 29.457641 23.937375 33.692287
2100 4 29.457641 23.937375 46.47327
2101 4 34.894347 22.383656 28.651287
2102 4 34.894347 22.383656 41.43227
2103 4 34.894347 22.383656 54.213254
2104 4 37.048257 23.159884 29.082752
2105 4 37.048257 23.159884 41.862959
2106 4 37.048257 23.159884 54.643943
2107 4 37.090269 23.116304 21.657831
2108 4 37.090269 23.116304 34.438814
2109 4 37.090269 23.116304 47.219798
2110 4 34.959311 22.833982 22.605346
2111 4 34.959311 22.833982 35.38633
2112 4 34.959311 22.833982 48.167313
2113 2 28.333812 15.919933 27.129519
2114 2 28.333812 15.919933 39.910503
2115 2 28.333812 15.919933 52.69071
2116 2 30.403696 15.515082 28.319928
2117 2 30.403696 15.515082 41.100911
2118 2 30.403696 15.515082 53.881119
2119 2 28.904868 17.881029 29.268219
2120 2 28.904868 17.881029 42.048427
2121 2 28.904868 17.881029 54.82941
2122 2 27.299453 17.17554 27.831038
2123 2 27.299453 17.17554 40.612021
2124 2 27.299453 17.17554 53.393005
2125 2 31.044773 16.919745 29.305468
2126 2 31.044773 16.919745 42.086452
2127 2 31.044773 16.919745 54.867435
2128 2 28.418225 17.296174 20.516311
2129 2 28.418225 17.296174 33.297295
2130 2 28.418225 17.296174 46.078278
2131 2 27.928081 17.922715 22.586722
2132 2 27.928081 17.922715 35.367705
2133 2 27.928081 17.922715 48.147913
2134 2 30.058262 16.041199 22.60457
2135 2 30.058262 16.041199 35.385554
2136 2 30.058262 16.041199 48.165761
2137 2 29.698823 16.165623 20.235393
2138 2 29.698823 16.165623 33.016377
2139 2 29.698823 16.165623 45.79736
2140 2 28.79867 17.42944 23.916813
2141 2 28.79867 17.42944 36.697021
2142 2 28.79867 17.42944 49.478004
2143 2 36.613351 16.370891 26.793504
2144 2 36.613351 16.370891 39.574488
2145 2 36.613351 16.370891 52.354695
2146 2 35.048003 15.542872 26.749272
2147 2 35.048003 15.542872 39.530255
2148 2 35.048003 15.542872 52.310463
2149 2 34.333016 16.750478 28.698624
2150 2 34.333016 16.750478 41.479607
2151 2 34.333016 16.750478 54.260591
2152 2 37.167681 17.596181 28.786314
2153 2 37.167681 17.596181 41.567297
2154 2 37.167681 17.596181 54.347505
2155 2 35.856741 17.908188 29.899896
2156 2 35.856741 17.908188 42.680104
2157 2 35.856741 17.908188 55.461088
2158 2 35.573935 18.764628 21.482451
2159 2 35.573935 18.764628 34.262658
2160 2 35.573935 18.764628 47.043642
2161 2 34.143182 15.503713 21.866579
2162 2 34.143182 15.503713 34.646786
2163 2 34.143182 15.503713 47.42777
2164 2 36.440634 15.92246 21.999278
2165 2 36.440634 15.92246 34.779485
2166 2 36.440634 15.92246 47.560469
2167 2 33.735896 16.982904 21.250422
2168 2 33.735896 16.982904 34.03063
2169 2 33.735896 16.982904 46.811613
2170 2 37.038143 18.169667 21.9403
2171 2 37.038143 18.169667 34.721284
2172 2 37.038143 18.169667 47.501491
2173 2 29.337439 21.47353 29.210794
2174 2 29.337439 21.47353 41.991002
2175 2 29.337439 21.47353 54.771985
2176 2 30.255486 22.820718 29.095944
2177 2 30.255486 22.820718 41.876927
2178 2 30.255486 22.820718 54.657911
2179 2 29.320712 24.457807 27.152024
2180 2 29.320712 24.457807 39.933007
2181 2 29.320712 24.457807 52.713991
2182 2 27.848336 21.937751 27.789909
2183 2 27.848336 21.937751 40.570116
2184 2 27.848336 21.937751 53.3511
2185 2 27.856505 23.65 26.430329
2186 2 27.856505 23.65 39.211312
2187 2 27.856505 23.65 51.992296
2188 2 28.20155 22.4885 23.408523
2189 2 28.20155 22.4885 36.189506
2190 2 28.20155 22.4885 48.97049
2191 2 28.61545 24.215276 23.402315
2192 2 28.61545 24.215276 36.182522
2193 2 28.61545 24.215276 48.963506
2194 2 29.581733 24.887922 21.300863
2195 2 29.581733 24.887922 34.081847
2196 2 29.581733 24.887922 46.86283
2197 2 28.848073 22.04449 21.282239
2198 2 28.848073 22.04449 34.062446
2199 2 28.848073 22.04449 46.84343
2200 2 29.757173 23.653158 20.00026
2201 2 29.757173 23.653158 32.780468
2202 2 29.757173 23.653158 45.561451
2203 2 37.692446 23.88811 28.716472
2204 2 37.692446 23.88811 41.497456
2205 2 37.692446 23.88811 54.278439
2206 2 37.145507 22.862403 30.079156
2207 2 37.145507 22.862403 42.86014
2208 2 37.145507 22.862403 55.641123
2209 2 34.172747 22.207441 27.95132
2210 2 34.172747 22.207441 40.731528
2211 2 34.172747 22.207441 53.512511
2212 2 34.703736 22.102597 29.688044
2213 2 34.703736 22.102597 42.469028
2214 2 34.703736 22.102597 55.250011
2215 2 36.150827 23.148515 27.270754
2216 2 36.150827 23.148515 40.051738
2217 2 36.150827 23.148515 52.831945
2218 2 37.603364 23.631684 20.84379
2219 2 37.603364 23.631684 33.624773
2220 2 37.603364 23.631684 46.405757
2221 2 34.065771 23.213569 22.669755
2222 2 34.065771 23.213569 35.450739
2223 2 34.065771 23.213569 48.231722
2224 2 37.720065 22.731032 22.372541
2225 2 37.720065 22.731032 35.153525
2226 2 37.720065 22.731032 47.934508
2227 2 35.294242 22.15944 23.292896
2228 2 35.294242 22.15944 36.07388
2229 2 35.294242 22.15944 48.854087
2230 2 35.310191 23.608946 20.728939
2231 2 35.310191 23.608946 33.509923
2232 2 35.310191 23.608946 46.290906
2233 6 32.206336 13.605776 31.317678
2234 6 32.206336 13.605776 44.098661
2235 6 32.206336 13.605776 56.878869
2236 6 32.4977 13.447247 25.020308
2237 6 32.4977 13.447247 37.801291
2238 6 32.4977 13.447247 50.582275
2239 6 38.824833 13.846413 31.590835
2240 6 38.824833 13.846413 44.371819
2241 6 38.824833 13.846413 57.152802
2242 6 38.639279 14.032102 24.837944
2243 6 38.639279 14.032102 37.618928
2244 6 38.639279 14.032102 50.399911
2245 6 26.237085 20.146554 25.23216
2246 6 26.237085 20.146554 38.013144
2247 6 26.237085 20.146554 50.794127
2248 6 25.951946 20.03413 31.638948
2249 6 25.951946 20.03413 44.419932
2250 6 25.951946 20.03413 57.200915
2251 6 32.685977 19.641911 25.178615
2252 6 32.685977 19.641911 37.959599
2253 6 32.685977 19.641911 50.740582
2254 6 32.589115 19.95076 31.562123
2255 6 32.589115 19.95076 44.343106
2256 6 32.589115 19.95076 57.12409
2257 3 28.961273 14.120525 31.4496
2258 3 28.961273 14.120525 44.229808
2259 3 28.961273 14.120525 57.010791
2260 3 31.979548 13.47251 28.388993
2261 3 31.979548 13.47251 41.169977
2262 3 31.979548 13.47251 53.95096
2263 3 32.455298 16.556579 25.023412
2264 3 32.455298 16.556579 37.804395
2265 3 32.455298 16.556579 50.585379
2266 3 28.956994 13.910836 25.031948
2267 3 28.956994 13.910836 37.812156
2268 3 28.956994 13.910836 50.593139
2269 3 32.181829 13.783886 21.872787
2270 3 32.181829 13.783886 34.652994
2271 3 32.181829 13.783886 47.433978
2272 3 38.648226 13.86094 27.942784
2273 3 38.648226 13.86094 40.722992
2274 3 38.648226 13.86094 53.503975
2275 3 32.647855 16.651318 31.453481
2276 3 32.647855 16.651318 44.234464
2277 3 32.647855 16.651318 57.014672
2278 3 35.690247 13.362613 31.101945
2279 3 35.690247 13.362613 43.882929
2280 3 35.690247 13.362613 56.663912
2281 3 38.285675 13.625356 21.799065
2282 3 38.285675 13.625356 34.580049
2283 3 38.285675 13.625356 47.360256
2284 3 38.530747 16.975957 25.13283
2285 3 38.530747 16.975957 37.913814
2286 3 38.530747 16.975957 50.694797
2287 3 38.790601 16.871744 32.040149
2288 3 38.790601 16.871744 44.821132
2289 3 38.790601 16.871744 57.60134
2290 3 35.557986 13.591881 24.920978
2291 3 35.557986 13.591881 37.701185
2292 3 35.557986 13.591881 50.482169
2293 3 29.261195 19.189059 25.951527
2294 3 29.261195 19.189059 38.732511
2295 3 29.261195 19.189059 51.513494
2296 3 26.05192 19.749282 28.488323
2297 3 26.05192 19.749282 41.269307
2298 3 26.05192 19.749282 54.049514
2299 3 32.307477 19.520645 28.545749
2300 3 32.307477 19.520645 41.326732
2301 3 32.307477 19.520645 54.10694
2302 3 26.339782 23.163042 31.879513
2303 3 26.339782 23.163042 44.659721
2304 3 26.339782 23.163042 57.440704
2305 3 29.182616 19.574962 31.680077
2306 3 29.182616 19.574962 44.461061
2307 3 29.182616 19.574962 57.242044
2308 3 32.325371 19.907811 22.093176
2309 3 32.325371 19.907811 34.874159
2310 3 32.325371 19.907811 47.655143
2311 3 26.401245 20.075184 22.078431
2312 3 26.401245 20.075184 34.858639
2313 3 26.401245 20.075184 47.639622
2314 3 32.493421 22.761349 25.381155
2315 3 32.493421 22.761349 38.162139
2316 3 32.493421 22.761349 50.943122
2317 3 32.568109 22.859877 31.015031
2318 3 32.568109 22.859877 43.796015
2319 3 32.568109 22.859877 56.576222
2320 3 35.992503 20.028446 24.650148
2321 3 35.992503 20.028446 37.431132
2322 3 35.992503 20.028446 50.212115
2323 3 38.636945 23.048723 25.102566
2324 3 38.636945 23.048723 37.883549
2325 3 38.636945 23.048723 50.664533
2326 3 35.641233 20.175607 31.704134
2327 3 35.641233 20.175607 44.484341
2328 3 35.641233 20.175607 57.265325
2329 1 3.140421 29.635607 28.679223
2330 1 3.140421 29.635607 41.460207
2331 1 3.140421 29.635607 54.24119
2332 1 3.375379 29.237072 22.174657
2333 1 3.375379 29.237072 34.955641
2334 1 3.375379 29.237072 47.736624
2335 1 9.404926 29.485919 28.280351
2336 1 9.404926 29.485919 41.061335
2337 1 9.404926 29.485919 53.841542
2338 1 9.787315 29.336232 21.736984
2339 1 9.787315 29.336232 34.517968
2340 1 9.787315 29.336232 47.298175
2341 1 2.705127 35.258048 27.858198
2342 1 2.705127 35.258048 40.639182
2343 1 2.705127 35.258048 53.419389
2344 1 3.064177 35.648372 21.754833
2345 1 3.064177 35.648372 34.53504
2346 1 3.064177 35.648372 47.316024
2347 1 10.071288 35.533422 28.304408
2348 1 10.071288 35.533422 41.085391
2349 1 10.071288 35.533422 53.865599
2350 1 9.860448 35.832166 21.646966
2351 1 9.860448 35.832166 34.42795
2352 1 9.860448 35.832166 47.208933
2353 4 2.199034 29.302126 27.802325
2354 4 2.199034 29.302126 40.583309
2355 4 2.199034 29.302126 53.363516
2356 4 4.314432 29.077279 28.749065
2357 4 4.314432 29.077279 41.530048
2358 4 4.314432 29.077279 54.311032
2359 4 3.293299 29.410128 20.880263
2360 4 3.293299 29.410128 33.661246
2361 4 3.293299 29.410128 46.44223
2362 4 2.493509 29.81119 23.025171
2363 4 2.493509 29.81119 35.806154
2364 4 2.493509 29.81119 48.586362
2365 4 10.262677 30.151618 29.00903
2366 4 10.262677 30.151618 41.789238
2367 4 10.262677 30.151618 54.570221
2368 4 9.700568 28.884643 27.14504
2369 4 9.700568 28.884643 39.925247
2370 4 9.700568 28.884643 52.706231
2371 4 10.201993 30.586154 21.586437
2372 4 10.201993 30.586154 34.366645
2373 4 10.201993 30.586154 47.147628
2374 4 8.568569 28.987592 21.465379
2375 4 8.568569 28.987592 34.245586
2376 4 8.568569 28.987592 47.02657
2377 4 3.499471 35.017411 28.838307
2378 4 3.499471 35.017411 41.618514
2379 4 3.499471 35.017411 54.399498
2380 4 2.718353 36.336177 27.117103
2381 4 2.718353 36.336177 39.898087
2382 4 2.718353 36.336177 52.678294
2383 4 2.706683 35.884588 22.99025
2384 4 2.706683 35.884588 35.770458
2385 4 2.706683 35.884588 48.551441
2386 4 3.523978 36.569235 20.911303
2387 4 3.523978 36.569235 33.692287
2388 4 3.523978 36.569235 46.47327
2389 4 8.960684 35.015516 28.651287
2390 4 8.960684 35.015516 41.43227
2391 4 8.960684 35.015516 54.213254
2392 4 11.114594 35.791744 29.082752
2393 4 11.114594 35.791744 41.862959
2394 4 11.114594 35.791744 54.643943
2395 4 11.156606 35.748164 21.657831
2396 4 11.156606 35.748164 34.438814
2397 4 11.156606 35.748164 47.219798
2398 4 9.025648 35.465842 22.605346
2399 4 9.025648 35.465842 35.38633
2400 4 9.025648 35.465842 48.167313
2401 2 2.400538 28.551793 27.129519
2402 2 2.400538 28.551793 39.910503
2403 2 2.400538 28.551793 52.69071
2404 2 4.470033 28.146942 28.319928
2405 2 4.470033 28.146942 41.100911
2406 2 4.470033 28.146942 53.881119
2407 2 2.971205 30.512889 29.268219
2408 2 2.971205 30.512889 42.048427
2409 2 2.971205 30.512889 54.82941
2410 2 1.366179 29.8074 27.831038
2411 2 1.366179 29.8074 40.612021
2412 2 1.366179 29.8074 53.393005
2413 2 5.111499 29.551605 29.305468
2414 2 5.111499 29.551605 42.086452
2415 2 5.111499 29.551605 54.867435
2416 2 2.484951 29.928034 20.516311
2417 2 2.484951 29.928034 33.297295
2418 2 2.484951 29.928034 46.078278
2419 2 1.994807 30.554575 22.586722
2420 2 1.994807 30.554575 35.367705
2421 2 1.994807 30.554575 48.147913
2422 2 4.124599 28.673059 22.60457
2423 2 4.124599 28.673059 35.385554
2424 2 4.124599 28.673059 48.165761
2425 2 3.76516 28.797483 20.235393
2426 2 3.76516 28.797483 33.016377
2427 2 3.76516 28.797483 45.79736
2428 2 2.865007 30.0613 23.916813
2429 2 2.865007 30.0613 36.697021
2430 2 2.865007 30.0613 49.478004
2431 2 10.679688 29.002751 26.793504
2432 2 10.679688 29.002751 39.574488
2433 2 10.679688 29.002751 52.354695
2434 2 9.11434 28.174732 26.749272
2435 2 9.11434 28.174732 39.530255
2436 2 9.11434 28.174732 52.310463
2437 2 8.399353 29.382338 28.698624
2438 2 8.399353 29.382338 41.479607
2439 2 8.399353 29.382338 54.260591
2440 2 11.234018 30.228041 28.786314
2441 2 11.234018 30.228041 41.567297
2442 2 11.234018 30.228041 54.347505
2443 2 9.923078 30.540048 29.899896
2444 2 9.923078 30.540048 42.680104
2445 2 9.923078 30.540048 55.461088
2446 2 9.640272 31.396488 21.482451
2447 2 9.640272 31.396488 34.262658
2448 2 9.640272 31.396488 47.043642
2449 2 8.209908 28.135573 21.866579
2450 2 8.209908 28.135573 34.646786
2451 2 8.209908 28.135573 47.42777
2452 2 10.506971 28.55432 21.999278
2453 2 10.506971 28.55432 34.779485
2454 2 10.506971 28.55432 47.560469
2455 2 7.802233 29.614764 21.250422
2456 2 7.802233 29.614764 34.03063
2457 2 7.802233 29.614764 46.811613
2458 2 11.104869 30.801527 21.9403
2459 2 11.104869 30.801527 34.721284
2460 2 11.104869 30.801527 47.501491
2461 2 3.404165 34.10539 29.210794
2462 2 3.404165 34.10539 41.991002
2463 2 3.404165 34.10539 54.771985
2464 2 4.321823 35.452578 29.095944
2465 2 4.321823 35.452578 41.876927
2466 2 4.321823 35.452578 54.657911
2467 2 3.387049 37.089667 27.152024
2468 2 3.387049 37.089667 39.933007
2469 2 3.387049 37.089667 52.713991
2470 2 1.914673 34.569611 27.789909
2471 2 1.914673 34.569611 40.570116
2472 2 1.914673 34.569611 53.3511
2473 2 1.923231 36.28186 26.430329
2474 2 1.923231 36.28186 39.211312
2475 2 1.923231 36.28186 51.992296
2476 2 2.268276 35.12036 23.408523
2477 2 2.268276 35.12036 36.189506
2478 2 2.268276 35.12036 48.97049
2479 2 2.681787 36.847136 23.402315
2480 2 2.681787 36.847136 36.182522
2481 2 2.681787 36.847136 48.963506
2482 2 3.648459 37.519782 21.300863
2483 2 3.648459 37.519782 34.081847
2484 2 3.648459 37.519782 46.86283
2485 2 2.91441 34.67635 21.282239
2486 2 2.91441 34.67635 34.062446
2487 2 2.91441 34.67635 46.84343
2488 2 3.82351 36.285018 20.00026
2489 2 3.82351 36.285018 32.780468
2490 2 3.82351 36.285018 45.561451
2491 2 11.758783 36.51997 28.716472
2492 2 11.758783 36.51997 41.497456
2493 2 11.758783 36.51997 54.278439
2494 2 11.211844 35.494263 30.079156
2495 2 11.211844 35.494263 42.86014
2496 2 11.211844 35.494263 55.641123
2497 2 8.239084 34.839301 27.95132
2498 2 8.239084 34.839301 40.731528
2499 2 8.239084 34.839301 53.512511
2500 2 8.770073 34.734457 29.688044
2501 2 8.770073 34.734457 42.469028
2502 2 8.770073 34.734457 55.250011
2503 2 10.217553 35.780375 27.270754
2504 2 10.217553 35.780375 40.051738
2505 2 10.217553 35.780375 52.831945
2506 2 11.669701 36.263544 20.84379
2507 2 11.669701 36.263544 33.624773
2508 2 11.669701 36.263544 46.405757
2509 2 8.132108 35.845429 22.669755
2510 2 8.132108 35.845429 35.450739
2511 2 8.132108 35.845429 48.231722
2512 2 11.786402 35.362892 22.372541
2513 2 11.786402 35.362892 35.153525
2514 2 11.786402 35.362892 47.934508
2515 2 9.360579 34.7913 23.292896
2516 2 9.360579 34.7913 36.07388
2517 2 9.360579 34.7913 48.854087
2518 2 9.376917 36.240806 20.728939
2519 2 9.376917 36.240806 33.509923
2520 2 9.376917 36.240806 46.290906
2521 6 6.273062 26.237636 31.317678
2522 6 6.273062 26.237636 44.098661
2523 6 6.273062 26.237636 56.878869
2524 6 6.564037 26.079107 25.020308
2525 6 6.564037 26.079107 37.801291
2526 6 6.564037 26.079107 50.582275
2527 6 12.891559 26.478273 31.590835
2528 6 12.891559 26.478273 44.371819
2529 6 12.891559 26.478273 57.152802
2530 6 12.705616 26.663962 24.837944
2531 6 12.705616 26.663962 37.618928
2532 6 12.705616 26.663962 50.399911
2533 6 0.303811 32.778414 25.23216
2534 6 0.303811 32.778414 38.013144
2535 6 0.303811 32.778414 50.794127
2536 6 0.018283 32.66599 31.638948
2537 6 0.018283 32.66599 44.419932
2538 6 0.018283 32.66599 57.200915
2539 6 6.752314 32.273771 25.178615
2540 6 6.752314 32.273771 37.959599
2541 6 6.752314 32.273771 50.740582
2542 6 6.655452 32.58262 31.562123
2543 6 6.655452 32.58262 44.343106
2544 6 6.655452 32.58262 57.12409
2545 3 3.027999 26.752385 31.4496
2546 3 3.027999 26.752385 44.229808
2547 3 3.027999 26.752385 57.010791
2548 3 6.046274 26.10437 28.388993
2549 3 6.046274 26.10437 41.169977
2550 3 6.046274 26.10437 53.95096
2551 3 6.522024 29.188439 25.023412
2552 3 6.522024 29.188439 37.804395
2553 3 6.522024 29.188439 50.585379
2554 3 3.02372 26.542696 25.031948
2555 3 3.02372 26.542696 37.812156
2556 3 3.02372 26.542696 50.593139
2557 3 6.248166 26.415746 21.872787
2558 3 6.248166 26.415746 34.652994
2559 3 6.248166 26.415746 47.433978
2560 3 12.714563 26.4928 27.942784
2561 3 12.714563 26.4928 40.722992
2562 3 12.714563 26.4928 53.503975
2563 3 6.714581 29.283178 31.453481
2564 3 6.714581 29.283178 44.234464
2565 3 6.714581 29.283178 57.014672
2566 3 9.756584 25.994473 31.101945
2567 3 9.756584 25.994473 43.882929
2568 3 9.756584 25.994473 56.663912
2569 3 12.352401 26.257216 21.799065
2570 3 12.352401 26.257216 34.580049
2571 3 12.352401 26.257216 47.360256
2572 3 12.597473 29.607817 25.13283
2573 3 12.597473 29.607817 37.913814
2574 3 12.597473 29.607817 50.694797
2575 3 12.856938 29.503604 32.040149
2576 3 12.856938 29.503604 44.821132
2577 3 12.856938 29.503604 57.60134
2578 3 9.624712 26.223741 24.920978
2579 3 9.624712 26.223741 37.701185
2580 3 9.624712 26.223741 50.482169
2581 3 3.327921 31.820919 25.951527
2582 3 3.327921 31.820919 38.732511
2583 3 3.327921 31.820919 51.513494
2584 3 0.118646 32.381142 28.488323
2585 3 0.118646 32.381142 41.269307
2586 3 0.118646 32.381142 54.049514
2587 3 6.374203 32.152505 28.545749
2588 3 6.374203 32.152505 41.326732
2589 3 6.374203 32.152505 54.10694
2590 3 0.406508 35.794902 31.879513
2591 3 0.406508 35.794902 44.659721
2592 3 0.406508 35.794902 57.440704
2593 3 3.249342 32.206822 31.680077
2594 3 3.249342 32.206822 44.461061
2595 3 3.249342 32.206822 57.242044
2596 3 6.391708 32.539671 22.093176
2597 3 6.391708 32.539671 34.874159
2598 3 6.391708 32.539671 47.655143
2599 3 0.467582 32.707044 22.078431
2600 3 0.467582 32.707044 34.858639
2601 3 0.467582 32.707044 47.639622
2602 3 6.559758 35.393209 25.381155
2603 3 6.559758 35.393209 38.162139
2604 3 6.559758 35.393209 50.943122
2605 3 6.634446 35.491737 31.015031
2606 3 6.634446 35.491737 43.796015
2607 3 6.634446 35.491737 56.576222
2608 3 10.05884 32.660306 24.650148
2609 3 10.05884 32.660306 37.431132
2610 3 10.05884 32.660306 50.212115
2611 3 12.703282 35.680583 25.102566
2612 3 12.703282 35.680583 37.883549
2613 3 12.703282 35.680583 50.664533
2614 3 9.707959 32.807467 31.704134
2615 3 9.707959 32.807467 44.484341
2616 3 9.707959 32.807467 57.265325
2617 1 16.107058 29.635607 28.679223
2618 1 16.107058 29.635607 41.460207
2619 1 16.107058 29.635607 54.24119
2620 1 16.342016 29.237072 22.174657
2621 1 16.342016 29.237072 34.955641
2622 1 16.342016 29.237072 47.736624
2623 1 22.371952 29.485919 28.280351
2624 1 22.371952 29.485919 41.061335
2625 1 22.371952 29.485919 53.841542
2626 1 22.753952 29.336232 21.736984
2627 1 22.753952 29.336232 34.517968
2628 1 22.753952 29.336232 47.298175
2629 1 15.671764 35.258048 27.858198
2630 1 15.671764 35.258048 40.639182
2631 1 15.671764 35.258048 53.419389
2632 1 16.030814 35.648372 21.754833
2633 1 16.030814 35.648372 34.53504
2634 1 16.030814 35.648372 47.316024
2635 1 23.038314 35.533422 28.304408
2636 1 23.038314 35.533422 41.085391
2637 1 23.038314 35.533422 53.865599
2638 1 22.827085 35.832166 21.646966
2639 1 22.827085 35.832166 34.42795
2640 1 22.827085 35.832166 47.208933
2641 4 15.165671 29.302126 27.802325
2642 4 15.165671 29.302126 40.583309
2643 4 15.165671 29.302126 53.363516
2644 4 17.281069 29.077279 28.749065
2645 4 17.281069 29.077279 41.530048
2646 4 17.281069 29.077279 54.311032
2647 4 16.259936 29.410128 20.880263
2648 4 16.259936 29.410128 33.661246
2649 4 16.259936 29.410128 46.44223
2650 4 15.460146 29.81119 23.025171
2651 4 15.460146 29.81119 35.806154
2652 4 15.460146 29.81119 48.586362
2653 4 23.229314 30.151618 29.00903
2654 4 23.229314 30.151618 41.789238
2655 4 23.229314 30.151618 54.570221
2656 4 22.667205 28.884643 27.14504
2657 4 22.667205 28.884643 39.925247
2658 4 22.667205 28.884643 52.706231
2659 4 23.16863 30.586154 21.586437
2660 4 23.16863 30.586154 34.366645
2661 4 23.16863 30.586154 47.147628
2662 4 21.535595 28.987592 21.465379
2663 4 21.535595 28.987592 34.245586
2664 4 21.535595 28.987592 47.02657
2665 4 16.466108 35.017411 28.838307
2666 4 16.466108 35.017411 41.618514
2667 4 16.466108 35.017411 54.399498
2668 4 15.685379 36.336177 27.117103
2669 4 15.685379 36.336177 39.898087
2670 4 15.685379 36.336177 52.678294
2671 4 15.67332 35.884588 22.99025
2672 4 15.67332 35.884588 35.770458
2673 4 15.67332 35.884588 48.551441
2674 4 16.491004 36.569235 20.911303
2675 4 16.491004 36.569235 33.692287
2676 4 16.491004 36.569235 46.47327
2677 4 21.92771 35.015516 28.651287
2678 4 21.92771 35.015516 41.43227
2679 4 21.92771 35.015516 54.213254
2680 4 24.081231 35.791744 29.082752
2681 4 24.081231 35.791744 41.862959
2682 4 24.081231 35.791744 54.643943
2683 4 24.123632 35.748164 21.657831
2684 4 24.123632 35.748164 34.438814
2685 4 24.123632 35.748164 47.219798
2686 4 21.992285 35.465842 22.605346
2687 4 21.992285 35.465842 35.38633
2688 4 21.992285 35.465842 48.167313
2689 2 15.367175 28.551793 27.129519
2690 2 15.367175 28.551793 39.910503
2691 2 15.367175 28.551793 52.69071
2692 2 17.43667 28.146942 28.319928
2693 2 17.43667 28.146942 41.100911
2694 2 17.43667 28.146942 53.881119
2695 2 15.937842 30.512889 29.268219
2696 2 15.937842 30.512889 42.048427
2697 2 15.937842 30.512889 54.82941
2698 2 14.332816 29.8074 27.831038
2699 2 14.332816 29.8074 40.612021
2700 2 14.332816 29.8074 53.393005
2701 2 18.078136 29.551605 29.305468
2702 2 18.078136 29.551605 42.086452
2703 2 18.078136 29.551605 54.867435
2704 2 15.451588 29.928034 20.516311
2705 2 15.451588 29.928034 33.297295
2706 2 15.451588 29.928034 46.078278
2707 2 14.961444 30.554575 22.586722
2708 2 14.961444 30.554575 35.367705
2709 2 14.961444 30.554575 48.147913
2710 2 17.091625 28.673059 22.60457
2711 2 17.091625 28.673059 35.385554
2712 2 17.091625 28.673059 48.165761
2713 2 16.731797 28.797483 20.235393
2714 2 16.731797 28.797483 33.016377
2715 2 16.731797 28.797483 45.79736
2716 2 15.832033 30.0613 23.916813
2717 2 15.832033 30.0613 36.697021
2718 2 15.832033 30.0613 49.478004
2719 2 23.646714 29.002751 26.793504
2720 2 23.646714 29.002751 39.574488
2721 2 23.646714 29.002751 52.354695
2722 2 22.081366 28.174732 26.749272
2723 2 22.081366 28.174732 39.530255
2724 2 22.081366 28.174732 52.310463
2725 2 21.36599 29.382338 28.698624
2726 2 21.36599 29.382338 41.479607
2727 2 21.36599 29.382338 54.260591
2728 2 24.200655 30.228041 28.786314
2729 2 24.200655 30.228041 41.567297
2730 2 24.200655 30.228041 54.347505
2731 2 22.890104 30.540048 29.899896
2732 2 22.890104 30.540048 42.680104
2733 2 22.890104 30.540048 55.461088
2734 2 22.607298 31.396488 21.482451
2735 2 22.607298 31.396488 34.262658
2736 2 22.607298 31.396488 47.043642
2737 2 21.176545 28.135573 21.866579
2738 2 21.176545 28.135573 34.646786
2739 2 21.176545 28.135573 47.42777
2740 2 23.473997 28.55432 21.999278
2741 2 23.473997 28.55432 34.779485
2742 2 23.473997 28.55432 47.560469
2743 2 20.769259 29.614764 21.250422
2744 2 20.769259 29.614764 34.03063
2745 2 20.769259 29.614764 46.811613
2746 2 24.071506 30.801527 21.9403
2747 2 24.071506 30.801527 34.721284
2748 2 24.071506 30.801527 47.501491
2749 2 16.370802 34.10539 29.210794
2750 2 16.370802 34.10539 41.991002
2751 2 16.370802 34.10539 54.771985
2752 2 17.28846 35.452578 29.095944
2753 2 17.28846 35.452578 41.876927
2754 2 17.28846 35.452578 54.657911
2755 2 16.353686 37.089667 27.152024
2756 2 16.353686 37.089667 39.933007
2757 2 16.353686 37.089667 52.713991
2758 2 14.881699 34.569611 27.789909
2759 2 14.881699 34.569611 40.570116
2760 2 14.881699 34.569611 53.3511
2761 2 14.889868 36.28186 26.430329
2762 2 14.889868 36.28186 39.211312
2763 2 14.889868 36.28186 51.992296
2764 2 15.234913 35.12036 23.408523
2765 2 15.234913 35.12036 36.189506
2766 2 15.234913 35.12036 48.97049
2767 2 15.648813 36.847136 23.402315
2768 2 15.648813 36.847136 36.182522
2769 2 15.648813 36.847136 48.963506
2770 2 16.615096 37.519782 21.300863
2771 2 16.615096 37.519782 34.081847
2772 2 16.615096 37.519782 46.86283
2773 2 15.881436 34.67635 21.282239
2774 2 15.881436 34.67635 34.062446
2775 2 15.881436 34.67635 46.84343
2776 2 16.790536 36.285018 20.00026
2777 2 16.790536 36.285018 32.780468
2778 2 16.790536 36.285018 45.561451
2779 2 24.725809 36.51997 28.716472
2780 2 24.725809 36.51997 41.497456
2781 2 24.725809 36.51997 54.278439
2782 2 24.17887 35.494263 30.079156
2783 2 24.17887 35.494263 42.86014
2784 2 24.17887 35.494263 55.641123
2785 2 21.205721 34.839301 27.95132
2786 2 21.205721 34.839301 40.731528
2787 2 21.205721 34.839301 53.512511
2788 2 21.737099 34.734457 29.688044
2789 2 21.737099 34.734457 42.469028
2790 2 21.737099 34.734457 55.250011
2791 2 23.18419 35.780375 27.270754
2792 2 23.18419 35.780375 40.051738
2793 2 23.18419 35.780375 52.831945
2794 2 24.636727 36.263544 20.84379
2795 2 24.636727 36.263544 33.624773
2796 2 24.636727 36.263544 46.405757
2797 2 21.099134 35.845429 22.669755
2798 2 21.099134 35.845429 35.450739
2799 2 21.099134 35.845429 48.231722
2800 2 24.753428 35.362892 22.372541
2801 2 24.753428 35.362892 35.153525
2802 2 24.753428 35.362892 47.934508
2803 2 22.327605 34.7913 23.292896
2804 2 22.327605 34.7913 36.07388
2805 2 22.327605 34.7913 48.854087
2806 2 22.343554 36.240806 20.728939
2807 2 22.343554 36.240806 33.509923
2808 2 22.343554 36.240806 46.290906
2809 6 19.239699 26.237636 31.317678
2810 6 19.239699 26.237636 44.098661
2811 6 19.239699 26.237636 56.878869
2812 6 19.531063 26.079107 25.020308
2813 6 19.531063 26.079107 37.801291
2814 6 19.531063 26.079107 50.582275
2815 6 25.858196 26.478273 31.590835
2816 6 25.858196 26.478273 44.371819
2817 6 25.858196 26.478273 57.152802
2818 6 25.672642 26.663962 24.837944
2819 6 25.672642 26.663962 37.618928
2820 6 25.672642 26.663962 50.399911
2821 6 13.270448 32.778414 25.23216
2822 6 13.270448 32.778414 38.013144
2823 6 13.270448 32.778414 50.794127
2824 6 12.98492 32.66599 31.638948
2825 6 12.98492 32.66599 44.419932
2826 6 12.98492 32.66599 57.200915
2827 6 19.718951 32.273771 25.178615
2828 6 19.718951 32.273771 37.959599
2829 6 19.718951 32.273771 50.740582
2830 6 19.622478 32.58262 31.562123
2831 6 19.622478 32.58262 44.343106
2832 6 19.622478 32.58262 57.12409
2833 3 15.994636 26.752385 31.4496
2834 3 15.994636 26.752385 44.229808
2835 3 15.994636 26.752385 57.010791
2836 3 19.012911 26.10437 28.388993
2837 3 19.012911 26.10437 41.169977
2838 3 19.012911 26.10437 53.95096
2839 3 19.488661 29.188439 25.023412
2840 3 19.488661 29.188439 37.804395
2841 3 19.488661 29.188439 50.585379
2842 3 15.990357 26.542696 25.031948
2843 3 15.990357 26.542696 37.812156
2844 3 15.990357 26.542696 50.593139
2845 3 19.215192 26.415746 21.872787
2846 3 19.215192 26.415746 34.652994
2847 3 19.215192 26.415746 47.433978
2848 3 25.6812 26.4928 27.942784
2849 3 25.6812 26.4928 40.722992
2850 3 25.6812 26.4928 53.503975
2851 3 19.681218 29.283178 31.453481
2852 3 19.681218 29.283178 44.234464
2853 3 19.681218 29.283178 57.014672
2854 3 22.72361 25.994473 31.101945
2855 3 22.72361 25.994473 43.882929
2856 3 22.72361 25.994473 56.663912
2857 3 25.319038 26.257216 21.799065
2858 3 25.319038 26.257216 34.580049
2859 3 25.319038 26.257216 47.360256
2860 3 25.56411 29.607817 25.13283
2861 3 25.56411 29.607817 37.913814
2862 3 25.56411 29.607817 50.694797
2863 3 25.823964 29.503604 32.040149
2864 3 25.823964 29.503604 44.821132
2865 3 25.823964 29.503604 57.60134
2866 3 22.591349 26.223741 24.920978
2867 3 22.591349 26.223741 37.701185
2868 3 22.591349 26.223741 50.482169
2869 3 16.294558 31.820919 25.951527
2870 3 16.294558 31.820919 38.732511
2871 3 16.294558 31.820919 51.513494
2872 3 13.085283 32.381142 28.488323
2873 3 13.085283 32.381142 41.269307
2874 3 13.085283 32.381142 54.049514
2875 3 19.34084 32.152505 28.545749
2876 3 19.34084 32.152505 41.326732
2877 3 19.34084 32.152505 54.10694
2878 3 13.373145 35.794902 31.879513
2879 3 13.373145 35.794902 44.659721
2880 3 13.373145 35.794902 57.440704
2881 3 16.215979 32.206822 31.680077
2882 3 16.215979 32.206822 44.461061
2883 3 16.215979 32.206822 57.242044
2884 3 19.358345 32.539671 22.093176
2885 3 19.358345 32.539671 34.874159
2886 3 19.358345 32.539671 47.655143
2887 3 13.434608 32.707044 22.078431
2888 3 13.434608 32.707044 34.858639
2889 3 13.434608 32.707044 47.639622
2890 3 19.526784 35.393209 25.381155
2891 3 19.526784 35.393209 38.162139
2892 3 19.526784 35.393209 50.943122
2893 3 19.601472 35.491737 31.015031
2894 3 19.601472 35.491737 43.796015
2895 3 19.601472 35.491737 56.576222
2896 3 23.025477 32.660306 24.650148
2897 3 23.025477 32.660306 37.431132
2898 3 23.025477 32.660306 50.212115
2899 3 25.670308 35.680583 25.102566
2900 3 25.670308 35.680583 37.883549
2901 3 25.670308 35.680583 50.664533
2902 3 22.674596 32.807467 31.704134
2903 3 22.674596 32.807467 44.484341
2904 3 22.674596 32.807467 57.265325
2905 1 29.074084 29.635607 28.679223
2906 1 29.074084 29.635607 41.460207
2907 1 29.074084 29.635607 54.24119
2908 1 29.308653 29.237072 22.174657
2909 1 29.308653 29.237072 34.955641
2910 1 29.308653 29.237072 47.736624
2911 1 35.338589 29.485919 28.280351
2912 1 35.338589 29.485919 41.061335
2913 1 35.338589 29.485919 53.841542
2914 1 35.720978 29.336232 21.736984
2915 1 35.720978 29.336232 34.517968
2916 1 35.720978 29.336232 47.298175
2917 1 28.63879 35.258048 27.858198
2918 1 28.63879 35.258048 40.639182
2919 1 28.63879 35.258048 53.419389
2920 1 28.99784 35.648372 21.754833
2921 1 28.99784 35.648372 34.53504
2922 1 28.99784 35.648372 47.316024
2923 1 36.004951 35.533422 28.304408
2924 1 36.004951 35.533422 41.085391
2925 1 36.004951 35.533422 53.865599
2926 1 35.793722 35.832166 21.646966
2927 1 35.793722 35.832166 34.42795
2928 1 35.793722 35.832166 47.208933
2929 4 28.132697 29.302126 27.802325
2930 4 28.132697 29.302126 40.583309
2931 4 28.132697 29.302126 53.363516
2932 4 30.247706 29.077279 28.749065
2933 4 30.247706 29.077279 41.530048
2934 4 30.247706 29.077279 54.311032
2935 4 29.226573 29.410128 20.880263
2936 4 29.226573 29.410128 33.661246
2937 4 29.226573 29.410128 46.44223
2938 4 28.426783 29.81119 23.025171
2939 4 28.426783 29.81119 35.806154
2940 4 28.426783 29.81119 48.586362
2941 4 36.195951 30.151618 29.00903
2942 4 36.195951 30.151618 41.789238
2943 4 36.195951 30.151618 54.570221
2944 4 35.633842 28.884643 27.14504
2945 4 35.633842 28.884643 39.925247
2946 4 35.633842 28.884643 52.706231
2947 4 36.135267 30.586154 21.586437
2948 4 36.135267 30.586154 34.366645
2949 4 36.135267 30.586154 47.147628
2950 4 34.502232 28.987592 21.465379
2951 4 34.502232 28.987592 34.245586
2952 4 34.502232 28.987592 47.02657
2953 4 29.432745 35.017411 28.838307
2954 4 29.432745 35.017411 41.618514
2955 4 29.432745 35.017411 54.399498
2956 4 28.652016 36.336177 27.117103
2957 4 28.652016 36.336177 39.898087
2958 4 28.652016 36.336177 52.678294
2959 4 28.639957 35.884588 22.99025
2960 4 28.639957 35.884588 35.770458
2961 4 28.639957 35.884588 48.551441
2962 4 29.457641 36.569235 20.911303
2963 4 29.457641 36.569235 33.692287
2964 4 29.457641 36.569235 46.47327
2965 4 34.894347 35.015516 28.651287
2966 4 34.894347 35.015516 41.43227
2967 4 34.894347 35.015516 54.213254
2968 4 37.048257 35.791744 29.082752
2969 4 37.048257 35.791744 41.862959
2970 4 37.048257 35.791744 54.643943
2971 4 37.090269 35.748164 21.657831
2972 4 37.090269 35.748164 34.438814
2973 4 37.090269 35.748164 47.219798
2974 4 34.959311 35.465842 22.605346
2975 4 34.959311 35.465842 35.38633
2976 4 34.959311 35.465842 48.167313
2977 2 28.333812 28.551793 27.129519
2978 2 28.333812 28.551793 39.910503
2979 2 28.333812 28.551793 52.69071
2980 2 30.403696 28.146942 28.319928
2981 2 30.403696 28.146942 41.100911
2982 2 30.403696 28.146942 53.881119
2983 2 28.904868 30.512889 29.268219
2984 2 28.904868 30.512889 42.048427
2985 2 28.904868 30.512889 54.82941
2986 2 27.299453 29.8074 27.831038
2987 2 27.299453 29.8074 40.612021
2988 2 27.299453 29.8074 53.393005
2989 2 31.044773 29.551605 29.305468
2990 2 31.044773 29.551605 42.086452
2991 2 31.044773 29.551605 54.867435
2992 2 28.418225 29.928034 20.516311
2993 2 28.418225 29.928034 33.297295
2994 2 28.418225 29.928034 46.078278
2995 2 27.928081 30.554575 22.586722
2996 2 27.928081 30.554575 35.367705
2997 2 27.928081 30.554575 48.147913
2998 2 30.058262 28.673059 22.60457
2999 2 30.058262 28.673059 35.385554
3000 2 30.058262 28.673059 48.165761
3001 2 29.698823 28.797483 20.235393
3002 2 29.698823 28.797483 33.016377
3003 2 29.698823 28.797483 45.79736
3004 2 28.79867 30.0613 23.916813
3005 2 28.79867 30.0613 36.697021
3006 2 28.79867 30.0613 49.478004
3007 2 36.613351 29.002751 26.793504
3008 2 36.613351 29.002751 39.574488
3009 2 36.613351 29.002751 52.354695
3010 2 35.048003 28.174732 26.749272
3011 2 35.048003 28.174732 39.530255
3012 2 35.048003 28.174732 52.310463
3013 2 34.333016 29.382338 28.698624
3014 2 34.333016 29.382338 41.479607
3015 2 34.333016 29.382338 54.260591
3016 2 37.167681 30.228041 28.786314
3017 2 37.167681 30.228041 41.567297
3018 2 37.167681 30.228041 54.347505
3019 2 35.856741 30.540048 29.899896
3020 2 35.856741 30.540048 42.680104
3021 2 35.856741 30.540048 55.461088
3022 2 35.573935 31.396488 21.482451
3023 2 35.573935 31.396488 34.262658
3024 2 35.573935 31.396488 47.043642
3025 2 34.143182 28.135573 21.866579
3026 2 34.143182 28.135573 34.646786
3027 2 34.143182 28.135573 47.42777
3028 2 36.440634 28.55432 21.999278
3029 2 36.440634 28.55432 34.779485
3030 2 36.440634 28.55432 47.560469
3031 2 33.735896 29.614764 21.250422
3032 2 33.735896 29.614764 34.03063
3033 2 33.735896 29.614764 46.811613
3034 2 37.038143 30.801527 21.9403
3035 2 37.038143 30.801527 34.721284
3036 2 37.038143 30.801527 47.501491
3037 2 29.337439 34.10539 29.210794
3038 2 29.337439 34.10539 41.991002
3039 2 29.337439 34.10539 54.771985
3040 2 30.255486 35.452578 29.095944
3041 2 30.255486 35.452578 41.876927
3042 2 30.255486 35.452578 54.657911
3043 2 29.320712 37.089667 27.152024
3044 2 29.320712 37.089667 39.933007
3045 2 29.320712 37.089667 52.713991
3046 2 27.848336 34.569611 27.789909
3047 2 27.848336 34.569611 40.570116
3048 2 27.848336 34.569611 53.3511
3049 2 27.856505 36.28186 26.430329
3050 2 27.856505 36.28186 39.211312
3051 2 27.856505 36.28186 51.992296
3052 2 28.20155 35.12036 23.408523
3053 2 28.20155 35.12036 36.189506
3054 2 28.20155 35.12036 48.97049
3055 2 28.61545 36.847136 23.402315
3056 2 28.61545 36.847136 36.182522
3057 2 28.61545 36.847136 48.963506
3058 2 29.581733 37.519782 21.300863
3059 2 29.581733 37.519782 34.081847
3060 2 29.581733 37.519782 46.86283
3061 2 28.848073 34.67635 21.282239
3062 2 28.848073 34.67635 34.062446
3063 2 28.848073 34.67635 46.84343
3064 2 29.757173 36.285018 20.00026
3065 2 29.757173 36.285018 32.780468
3066 2 29.757173 36.285018 45.561451
3067 2 37.692446 36.51997 28.716472
3068 2 37.692446 36.51997 41.497456
3069 2 37.692446 36.51997 54.278439
3070 2 37.145507 35.494263 30.079156
3071 2 37.145507 35.494263 42.86014
3072 2 37.145507 35.494263 55.641123
3073 2 34.172747 34.839301 27.95132
3074 2 34.172747 34.839301 40.731528
3075 2 34.172747 34.839301 53.512511
3076 2 34.703736 34.734457 29.688044
3077 2 34.703736 34.734457 42.469028
3078 2 34.703736 34.734457 55.250011
3079 2 36.150827 35.780375 27.270754
3080 2 36.150827 35.780375 40.051738
3081 2 36.150827 35.780375 52.831945
3082 2 37.603364 36.263544 20.84379
3083 2 37.603364 36.263544 33.624773
3084 2 37.603364 36.263544 46.405757
3085 2 34.065771 35.845429 22.669755
3086 2 34.065771 35.845429 35.450739
3087 2 34.065771 35.845429 48.231722
3088 2 37.720065 35.362892 22.372541
3089 2 37.720065 35.362892 35.153525
3090 2 37.720065 35.362892 47.934508
3091 2 35.294242 34.7913 23.292896
3092 2 35.294242 34.7913 36.07388
3093 2 35.294242 34.7913 48.854087
3094 2 35.310191 36.240806 20.728939
3095 2 35.310191 36.240806 33.509923
3096 2 35.310191 36.240806 46.290906
3097 6 32.206336 26.237636 31.317678
3098 6 32.206336 26.237636 44.098661
3099 6 32.206336 26.237636 56.878869
3100 6 32.4977 26.079107 25.020308
3101 6 32.4977 26.079107 37.801291
3102 6 32.4977 26.079107 50.582275
3103 6 38.824833 26.478273 31.590835
3104 6 38.824833 26.478273 44.371819
3105 6 38.824833 26.478273 57.152802
3106 6 38.639279 26.663962 24.837944
3107 6 38.639279 26.663962 37.618928
3108 6 38.639279 26.663962 50.399911
3109 6 26.237085 32.778414 25.23216
3110 6 26.237085 32.778414 38.013144
3111 6 26.237085 32.778414 50.794127
3112 6 25.951946 32.66599 31.638948
3113 6 25.951946 32.66599 44.419932
3114 6 25.951946 32.66599 57.200915
3115 6 32.685977 32.273771 25.178615
3116 6 32.685977 32.273771 37.959599
3117 6 32.685977 32.273771 50.740582
3118 6 32.589115 32.58262 31.562123
3119 6 32.589115 32.58262 44.343106
3120 6 32.589115 32.58262 57.12409
3121 3 28.961273 26.752385 31.4496
3122 3 28.961273 26.752385 44.229808
3123 3 28.961273 26.752385 57.010791
3124 3 31.979548 26.10437 28.388993
3125 3 31.979548 26.10437 41.169977
3126 3 31.979548 26.10437 53.95096
3127 3 32.455298 29.188439 25.023412
3128 3 32.455298 29.188439 37.804395
3129 3 32.455298 29.188439 50.585379
3130 3 28.956994 26.542696 25.031948
3131 3 28.956994 26.542696 37.812156
3132 3 28.956994 26.542696 50.593139
3133 3 32.181829 26.415746 21.872787
3134 3 32.181829 26.415746 34.652994
3135 3 32.181829 26.415746 47.433978
3136 3 38.648226 26.4928 27.942784
3137 3 38.648226 26.4928 40.722992
3138 3 38.648226 26.4928 53.503975
3139 3 32.647855 29.283178 31.453481
3140 3 32.647855 29.283178 44.234464
3141 3 32.647855 29.283178 57.014672
3142 3 35.690247 25.994473 31.101945
3143 3 35.690247 25.994473 43.882929
3144 3 35.690247 25.994473 56.663912
3145 3 38.285675 26.257216 21.799065
3146 3 38.285675 26.257216 34.580049
3147 3 38.285675 26.257216 47.360256
3148 3 38.530747 29.607817 25.13283
3149 3 38.530747 29.607817 37.913814
3150 3 38.530747 29.607817 50.694797
3151 3 38.790601 29.503604 32.040149
3152 3 38.790601 29.503604 44.821132
3153 3 38.790601 29.503604 57.60134
3154 3 35.557986 26.223741 24.920978
3155 3 35.557986 26.223741 37.701185
3156 3 35.557986 26.223741 50.482169
3157 3 29.261195 31.820919 25.951527
3158 3 29.261195 31.820919 38.732511
3159 3 29.261195 31.820919 51.513494
3160 3 26.05192 32.381142 28.488323
3161 3 26.05192 32.381142 41.269307
3162 3 26.05192 32.381142 54.049514
3163 3 32.307477 32.152505 28.545749
3164 3 32.307477 32.152505 41.326732
3165 3 32.307477 32.152505 54.10694
3166 3 26.339782 35.794902 31.879513
3167 3 26.339782 35.794902 44.659721
3168 3 26.339782 35.794902 57.440704
3169 3 29.182616 32.206822 31.680077
3170 3 29.182616 32.206822 44.461061
3171 3 29.182616 32.206822 57.242044
3172 3 32.325371 32.539671 22.093176
3173 3 32.325371 32.539671 34.874159
3174 3 32.325371 32.539671 47.655143
3175 3 26.401245 32.707044 22.078431
3176 3 26.401245 32.707044 34.858639
3177 3 26.401245 32.707044 47.639622
3178 3 32.493421 35.393209 25.381155
3179 3 32.493421 35.393209 38.162139
3180 3 32.493421 35.393209 50.943122
3181 3 32.568109 35.491737 31.015031
3182 3 32.568109 35.491737 43.796015
3183 3 32.568109 35.491737 56.576222
3184 3 35.992503 32.660306 24.650148
3185 3 35.992503 32.660306 37.431132
3186 3 35.992503 32.660306 50.212115
3187 3 38.636945 35.680583 25.102566
3188 3 38.636945 35.680583 37.883549
3189 3 38.636945 35.680583 50.664533
3190 3 35.641233 32.807467 31.704134
3191 3 35.641233 32.807467 44.484341
3192 3 35.641233 32.807467 57.265325
3193 1 3.140421 42.267467 28.679223
3194 1 3.140421 42.267467 41.460207
3195 1 3.140421 42.267467 54.24119
3196 1 3.375379 41.868932 22.174657
3197 1 3.375379 41.868932 34.955641
3198 1 3.375379 41.868932 47.736624
3199 1 9.404926 42.117779 28.280351
3200 1 9.404926 42.117779 41.061335
3201 1 9.404926 42.117779 53.841542
3202 1 9.787315 41.968092 21.736984
3203 1 9.787315 41.968092 34.517968
3204 1 9.787315 41.968092 47.298175
3205 1 2.705127 47.889908 27.858198
3206 1 2.705127 47.889908 40.639182
3207 1 2.705127 47.889908 53.419389
3208 1 3.064177 48.280232 21.754833
3209 1 3.064177 48.280232 34.53504
3210 1 3.064177 48.280232 47.316024
3211 1 10.071288 48.165282 28.304408
3212 1 10.071288 48.165282 41.085391
3213 1 10.071288 48.165282 53.865599
3214 1 9.860448 48.464026 21.646966
3215 1 9.860448 48.464026 34.42795
3216 1 9.860448 48.464026 47.208933
3217 4 2.199034 41.933986 27.802325
3218 4 2.199034 41.933986 40.583309
3219 4 2.199034 41.933986 53.363516
3220 4 4.314432 41.709139 28.749065
3221 4 4.314432 41.709139 41.530048
3222 4 4.314432 41.709139 54.311032
3223 4 3.293299 42.041988 20.880263
3224 4 3.293299 42.041988 33.661246
3225 4 3.293299 42.041988 46.44223
3226 4 2.493509 42.44305 23.025171
3227 4 2.493509 42.44305 35.806154
3228 4 2.493509 42.44305 48.586362
3229 4 10.262677 42.783478 29.00903
3230 4 10.262677 42.783478 41.789238
3231 4 10.262677 42.783478 54.570221
3232 4 9.700568 41.516503 27.14504
3233 4 9.700568 41.516503 39.925247
3234 4 9.700568 41.516503 52.706231
3235 4 10.201993 43.218014 21.586437
3236 4 10.201993 43.218014 34.366645
3237 4 10.201993 43.218014 47.147628
3238 4 8.568569 41.619452 21.465379
3239 4 8.568569 41.619452 34.245586
3240 4 8.568569 41.619452 47.02657
3241 4 3.499471 47.649271 28.838307
3242 4 3.499471 47.649271 41.618514
3243 4 3.499471 47.649271 54.399498
3244 4 2.718353 48.968037 27.117103
3245 4 2.718353 48.968037 39.898087
3246 4 2.718353 48.968037 52.678294
3247 4 2.706683 48.516448 22.99025
3248 4 2.706683 48.516448 35.770458
3249 4 2.706683 48.516448 48.551441
3250 4 3.523978 49.201095 20.911303
3251 4 3.523978 49.201095 33.692287
3252 4 3.523978 49.201095 46.47327
3253 4 8.960684 47.647376 28.651287
3254 4 8.960684 47.647376 41.43227
3255 4 8.960684 47.647376 54.213254
3256 4 11.114594 48.423604 29.082752
3257 4 11.114594 48.423604 41.862959
3258 4 11.114594 48.423604 54.643943
3259 4 11.156606 48.380024 21.657831
3260 4 11.156606 48.380024 34.438814
3261 4 11.156606 48.380024 47.219798
3262 4 9.025648 48.097702 22.605346
3263 4 9.025648 48.097702 35.38633
3264 4 9.025648 48.097702 48.167313
3265 2 2.400538 41.183653 27.129519
3266 2 2.400538 41.183653 39.910503
3267 2 2.400538 41.183653 52.69071
3268 2 4.470033 40.778802 28.319928
3269 2 4.470033 40.778802 41.100911
3270 2 4.470033 40.778802 53.881119
3271 2 2.971205 43.144749 29.268219
3272 2 2.971205 43.144749 42.048427
3273 2 2.971205 43.144749 54.82941
3274 2 1.366179 42.43926 27.831038
3275 2 1.366179 42.43926 40.612021
3276 2 1.366179 42.43926 53.393005
3277 2 5.111499 42.183465 29.305468
3278 2 5.111499 42.183465 42.086452
3279 2 5.111499 42.183465 54.867435
3280 2 2.484951 42.559894 20.516311
3281 2 2.484951 42.559894 33.297295
3282 2 2.484951 42.559894 46.078278
3283 2 1.994807 43.186435 22.586722
3284 2 1.994807 43.186435 35.367705
3285 2 1.994807 43.186435 48.147913
3286 2 4.124599 41.304919 22.60457
3287 2 4.124599 41.304919 35.385554
3288 2 4.124599 41.304919 48.165761
3289 2 3.76516 41.429343 20.235393
3290 2 3.76516 41.429343 33.016377
3291 2 3.76516 41.429343 45.79736
3292 2 2.865007 42.69316 23.916813
3293 2 2.865007 42.69316 36.697021
3294 2 2.865007 42.69316 49.478004
3295 2 10.679688 41.634611 26.793504
3296 2 10.679688 41.634611 39.574488
3297 2 10.679688 41.634611 52.354695
3298 2 9.11434 40.806592 26.749272
3299 2 9.11434 40.806592 39.530255
3300 2 9.11434 40.806592 52.310463
3301 2 8.399353 42.014198 28.698624
3302 2 8.399353 42.014198 41.479607
3303 2 8.399353 42.014198 54.260591
3304 2 11.234018 42.859901 28.786314
3305 2 11.234018 42.859901 41.567297
3306 2 11.234018 42.859901 54.347505
3307 2 9.923078 43.171908 29.899896
3308 2 9.923078 43.171908 42.680104
3309 2 9.923078 43.171908 55.461088
3310 2 9.640272 44.028348 21.482451
3311 2 9.640272 44.028348 34.262658
3312 2 9.640272 44.028348 47.043642
3313 2 8.209908 40.767433 21.866579
3314 2 8.209908 40.767433 34.646786
3315 2 8.209908 40.767433 47.42777
3316 2 10.506971 41.18618 21.999278
3317 2 10.506971 41.18618 34.779485
3318 2 10.506971 41.18618 47.560469
3319 2 7.802233 42.246624 21.250422
3320 2 7.802233 42.246624 34.03063
3321 2 7.802233 42.246624 46.811613
3322 2 11.104869 43.433387 21.9403
3323 2 11.104869 43.433387 34.721284
3324 2 11.104869 43.433387 47.501491
3325 2 3.404165 46.73725 29.210794
3326 2 3.404165 46.73725 41.991002
3327 2 3.404165 46.73725 54.771985
3328 2 4.321823 48.084438 29.095944
3329 2 4.321823 48.084438 41.876927
3330 2 4.321823 48.084438 54.657911
3331 2 3.387049 49.721527 27.152024
3332 2 3.387049 49.721527 39.933007
3333 2 3.387049 49.721527 52.713991
3334 2 1.914673 47.201471 27.789909
3335 2 1.914673 47.201471 40.570116
3336 2 1.914673 47.201471 53.3511
3337 2 1.923231 48.91372 26.430329
3338 2 1.923231 48.91372 39.211312
3339 2 1.923231 48.91372 51.992296
3340 2 2.268276 47.75222 23.408523
3341 2 2.268276 47.75222 36.189506
3342 2 2.268276 47.75222 48.97049
3343 2 2.681787 49.478996 23.402315
3344 2 2.681787 49.478996 36.182522
3345 2 2.681787 49.478996 48.963506
3346 2 3.648459 50.151642 21.300863
3347 2 3.648459 50.151642 34.081847
3348 2 3.648459 50.151642 46.86283
3349 2 2.91441 47.30821 21.282239
3350 2 2.91441 47.30821 34.062446
3351 2 2.91441 47.30821 46.84343
3352 2 3.82351 48.916878 20.00026
3353 2 3.82351 48.916878 32.780468
3354 2 3.82351 48.916878 45.561451
3355 2 11.758783 49.15183 28.716472
3356 2 11.758783 49.15183 41.497456
3357 2 11.758783 49.15183 54.278439
3358 2 11.211844 48.126123 30.079156
3359 2 11.211844 48.126123 42.86014
3360 2 11.211844 48.126123 55.641123
3361 2 8.239084 47.471161 27.95132
3362 2 8.239084 47.471161 40.731528
3363 2 8.239084 47.471161 53.512511
3364 2 8.770073 47.366317 29.688044
3365 2 8.770073 47.366317 42.469028
3366 2 8.770073 47.366317 55.250011
3367 2 10.217553 48.412235 27.270754
3368 2 10.217553 48.412235 40.051738
3369 2 10.217553 48.412235 52.831945
3370 2 11.669701 48.895404 20.84379
3371 2 11.669701 48.895404 33.624773
3372 2 11.669701 48.895404 46.405757
3373 2 8.132108 48.477289 22.669755
3374 2 8.132108 48.477289 35.450739
3375 2 8.132108 48.477289 48.231722
3376 2 11.786402 47.994752 22.372541
3377 2 11.786402 47.994752 35.153525
3378 2 11.786402 47.994752 47.934508
3379 2 9.360579 47.42316 23.292896
3380 2 9.360579 47.42316 36.07388
3381 2 9.360579 47.42316 48.854087
3382 2 9.376917 48.872666 20.728939
3383 2 9.376917 48.872666 33.509923
3384 2 9.376917 48.872666 46.290906
3385 6 6.273062 38.869496 31.317678
3386 6 6.273062 38.869496 44.098661
3387 6 6.273062 38.869496 56.878869
3388 6 6.564037 38.710967 25.020308
3389 6 6.564037 38.710967 37.801291
3390 6 6.564037 38.710967 50.582275
3391 6 12.891559 39.110133 31.590835
3392 6 12.891559 39.110133 44.371819
3393 6 12.891559 39.110133 57.152802
3394 6 12.705616 39.295822 24.837944
3395 6 12.705616 39.295822 37.618928
3396 6 12.705616 39.295822 50.399911
3397 6 0.303811 45.410274 25.23216
3398 6 0.303811 45.410274 38.013144
3399 6 0.303811 45.410274 50.794127
3400 6 0.018283 45.29785 31.638948
3401 6 0.018283 45.29785 44.419932
3402 6 0.018283 45.29785 57.200915
3403 6 6.752314 44.905631 25.178615
3404 6 6.752314 44.905631 37.959599
3405 6 6.752314 44.905631 50.740582
3406 6 6.655452 45.21448 31.562123
3407 6 6.655452 45.21448 44.343106
3408 6 6.655452 45.21448 57.12409
3409 3 3.027999 39.384245 31.4496
3410 3 3.027999 39.384245 44.229808
3411 3 3.027999 39.384245 57.010791
3412 3 6.046274 38.73623 28.388993
3413 3 6.046274 38.73623 41.169977
3414 3 6.046274 38.73623 53.95096
3415 3 6.522024 41.820299 25.023412
3416 3 6.522024 41.820299 37.804395
3417 3 6.522024 41.820299 50.585379
3418 3 3.02372 39.174556 25.031948
3419 3 3.02372 39.174556 37.812156
3420 3 3.02372 39.174556 50.593139
3421 3 6.248166 39.047606 21.872787
3422 3 6.248166 39.047606 34.652994
3423 3 6.248166 39.047606 47.433978
3424 3 12.714563 39.12466 27.942784
3425 3 12.714563 39.12466 40.722992
3426 3 12.714563 39.12466 53.503975
3427 3 6.714581 41.915038 31.453481
3428 3 6.714581 41.915038 44.234464
3429 3 6.714581 41.915038 57.014672
3430 3 9.756584 38.626333 31.101945
3431 3 9.756584 38.626333 43.882929
3432 3 9.756584 38.626333 56.663912
3433 3 12.352401 38.889076 21.799065
3434 3 12.352401 38.889076 34.580049
3435 3 12.352401 38.889076 47.360256
3436 3 12.597473 42.239677 25.13283
3437 3 12.597473 42.239677 37.913814
3438 3 12.597473 42.239677 50.694797
3439 3 12.856938 42.135464 32.040149
3440 3 12.856938 42.135464 44.821132
3441 3 12.856938 42.135464 57.60134
3442 3 9.624712 38.855601 24.920978
3443 3 9.624712 38.855601 37.701185
3444 3 9.624712 38.855601 50.482169
3445 3 3.327921 44.452779 25.951527
3446 3 3.327921 44.452779 38.732511
3447 3 3.327921 44.452779 51.513494
3448 3 0.118646 45.013002 28.488323
3449 3 0.118646 45.013002 41.269307
3450 3 0.118646 45.013002 54.049514
3451 3 6.374203 44.784365 28.545749
3452 3 6.374203 44.784365 41.326732
3453 3 6.374203 44.784365 54.10694
3454 3 0.406508 48.426762 31.879513
3455 3 0.406508 48.426762 44.659721
3456 3 0.406508 48.426762 57.440704
3457 3 3.249342 44.838682 31.680077
3458 3 3.249342 44.838682 44.461061
3459 3 3.249342 44.838682 57.242044
3460 3 6.391708 45.171531 22.093176
3461 3 6.391708 45.171531 34.874159
3462 3 6.391708 45.171531 47.655143
3463 3 0.467582 45.338904 22.078431
3464 3 0.467582 45.338904 34.858639
3465 3 0.467582 45.338904 47.639622
3466 3 6.559758 48.025069 25.381155
3467 3 6.559758 48.025069 38.162139
3468 3 6.559758 48.025069 50.943122
3469 3 6.634446 48.123597 31.015031
3470 3 6.634446 48.123597 43.796015
3471 3 6.634446 48.123597 56.576222
3472 3 10.05884 45.292166 24.650148
3473 3 10.05884 45.292166 37.431132
3474 3 10.05884 45.292166 50.212115
3475 3 12.703282 48.312443 25.102566
3476 3 12.703282 48.312443 37.883549
3477 3 12.703282 48.312443 50.664533
3478 3 9.707959 45.439327 31.704134
3479 3 9.707959 45.439327 44.484341
3480 3 9.707959 45.439327 57.265325
3481 1 16.107058 42.267467 28.679223
3482 1 16.107058 42.267467 41.460207
3483 1 16.107058 42.267467 54.24119
3484 1 16.342016 41.868932 22.174657
3485 1 16.342016 41.868932 34.955641
3486 1 16.342016 41.868932 47.736624
3487 1 22.371952 42.117779 28.280351
3488 1 22.371952 42.117779 41.061335
3489 1 22.371952 42.117779 53.841542
3490 1 22.753952 41.968092 21.736984
3491 1 22.753952 41.968092 34.517968
3492 1 22.753952 41.968092 47.298175
3493 1 15.671764 47.889908 27.858198
3494 1 15.671764 47.889908 40.639182
3495 1 15.671764 47.889908 53.419389
3496 1 16.030814 48.280232 21.754833
3497 1 16.030814 48.280232 34.53504
3498 1 16.030814 48.280232 47.316024
3499 1 23.038314 48.165282 28.304408
3500 1 23.038314 48.165282 41.085391
3501 1 23.038314 48.165282 53.865599
3502 1 22.827085 48.464026 21.646966
3503 1 22.827085 48.464026 34.42795
3504 1 22.827085 48.464026 47.208933
3505 4 15.165671 41.933986 27.802325
3506 4 15.165671 41.933986 40.583309
3507 4 15.165671 41.933986 53.363516
3508 4 17.281069 41.709139 28.749065
3509 4 17.281069 41.709139 41.530048
3510 4 17.281069 41.709139 54.311032
3511 4 16.259936 42.041988 20.880263
3512 4 16.259936 42.041988 33.661246
3513 4 16.259936 42.041988 46.44223
3514 4 15.460146 42.44305 23.025171
3515 4 15.460146 42.44305 35.806154
3516 4 15.460146 42.44305 48.586362
3517 4 23.229314 42.783478 29.00903
3518 4 23.229314 42.783478 41.789238
3519 4 23.229314 42.783478 54.570221
3520 4 22.667205 41.516503 27.14504
3521 4 22.667205 41.516503 39.925247
3522 4 22.667205 41.516503 52.706231
3523 4 23.16863 43.218014 21.586437
3524 4 23.16863 43.218014 34.366645
3525 4 23.16863 43.218014 47.147628
3526 4 21.535595 41.619452 21.465379
3527 4 21.535595 41.619452 34.245586
3528 4 21.535595 41.619452 47.02657
3529 4 16.466108 47.649271 28.838307
3530 4 16.466108 47.649271 41.618514
3531 4 16.466108 47.649271 54.399498
3532 4 15.685379 48.968037 27.117103
3533 4 15.685379 48.968037 39.898087
3534 4 15.685379 48.968037 52.678294
3535 4 15.67332 48.516448 22.99025
3536 4 15.67332 48.516448 35.770458
3537 4 15.67332 48.516448 48.551441
3538 4 16.491004 49.201095 20.911303
3539 4 16.491004 49.201095 33.692287
3540 4 16.491004 49.201095 46.47327
3541 4 21.92771 47.647376 28.651287
3542 4 21.92771 47.647376 41.43227
3543 4 21.92771 47.647376 54.213254
3544 4 24.081231 48.423604 29.082752
3545 4 24.081231 48.423604 41.862959
3546 4 24.081231 48.423604 54.643943
3547 4 24.123632 48.380024 21.657831
3548 4 24.123632 48.380024 34.438814
3549 4 24.123632 48.380024 47.219798
3550 4 21.992285 48.097702 22.605346
3551 4 21.992285 48.097702 35.38633
3552 4 21.992285 48.097702 48.167313
3553 2 15.367175 41.183653 27.129519
3554 2 15.367175 41.183653 39.910503
3555 2 15.367175 41.183653 52.69071
3556 2 17.43667 40.778802 28.319928
3557 2 17.43667 40.778802 41.100911
3558 2 17.43667 40.778802 53.881119
3559 2 15.937842 43.144749 29.268219
3560 2 15.937842 43.144749 42.048427
3561 2 15.937842 43.144749 54.82941
3562 2 14.332816 42.43926 27.831038
3563 2 14.332816 42.43926 40.612021
3564 2 14.332816 42.43926 53.393005
3565 2 18.078136 42.183465 29.305468
3566 2 18.078136 42.183465 42.086452
3567 2 18.078136 42.183465 54.867435
3568 2 15.451588 42.559894 20.516311
3569 2 15.451588 42.559894 33.297295
3570 2 15.451588 42.559894 46.078278
3571 2 14.961444 43.186435 22.586722
3572 2 14.961444 43.186435 35.367705
3573 2 14.961444 43.186435 48.147913
3574 2 17.091625 41.304919 22.60457
3575 2 17.091625 41.304919 35.385554
3576 2 17.091625 41.304919 48.165761
3577 2 16.731797 41.429343 20.235393
3578 2 16.731797 41.429343 33.016377
3579 2 16.731797 41.429343 45.79736
3580 2 15.832033 42.69316 23.916813
3581 2 15.832033 42.69316 36.697021
3582 2 15.832033 42.69316 49.478004
3583 2 23.646714 41.634611 26.793504
3584 2 23.646714 41.634611 39.574488
3585 2 23.646714 41.634611 52.354695
3586 2 22.081366 40.806592 26.749272
3587 2 22.081366 40.806592 39.530255
3588 2 22.081366 40.806592 52.310463
3589 2 21.36599 42.014198 28.698624
3590 2 21.36599 42.014198 41.479607
3591 2 21.36599 42.014198 54.260591
3592 2 24.200655 42.859901 28.786314
3593 2 24.200655 42.859901 41.567297
3594 2 24.200655 42.859901 54.347505
3595 2 22.890104 43.171908 29.899896
3596 2 22.890104 43.171908 42.680104
3597 2 22.890104 43.171908 55.461088
3598 2 22.607298 44.028348 21.482451
3599 2 22.607298 44.028348 34.262658
3600 2 22.607298 44.028348 47.043642
3601 2 21.176545 40.767433 21.866579
3602 2 21.176545 40.767433 34.646786
3603 2 21.176545 40.767433 47.42777
3604 2 23.473997 41.18618 21.999278
3605 2 23.473997 41.18618 34.779485
3606 2 23.473997 41.18618 47.560469
3607 2 20.769259 42.246624 21.250422
3608 2 20.769259 42.246624 34.03063
3609 2 20.769259 42.246624 46.811613
3610 2 24.071506 43.433387 21.9403
3611 2 24.071506 43.433387 34.721284
3612 2 24.071506 43.433387 47.501491
3613 2 16.370802 46.73725 29.210794
3614 2 16.370802 46.73725 41.991002
3615 2 16.370802 46.73725 54.771985
3616 2 17.28846 48.084438 29.095944
3617 2 17.28846 48.084438 41.876927
3618 2 17.28846 48.084438 54.657911
3619 2 16.353686 49.721527 27.152024
3620 2 16.353686 49.721527 39.933007
3621 2 16.353686 49.721527 52.713991
3622 2 14.881699 47.201471 27.789909
3623 2 14.881699 47.201471 40.570116
3624 2 14.881699 47.201471 53.3511
3625 2 14.889868 48.91372 26.430329
3626 2 14.889868 48.91372 39.211312
3627 2 14.889868 48.91372 51.992296
3628 2 15.234913 47.75222 23.408523
3629 2 15.234913 47.75222 36.189506
3630 2 15.234913 47.75222 48.97049
3631 2 15.648813 49.478996 23.402315
3632 2 15.648813 49.478996 36.182522
3633 2 15.648813 49.478996 48.963506
3634 2 16.615096 50.151642 21.300863
3635 2 16.615096 50.151642 34.081847
3636 2 16.615096 50.151642 46.86283
3637 2 15.881436 47.30821 21.282239
3638 2 15.881436 47.30821 34.062446
3639 2 15.881436 47.30821 46.84343
3640 2 16.790536 48.916878 20.00026
3641 2 16.790536 48.916878 32.780468
3642 2 16.790536 48.916878 45.561451
3643 2 24.725809 49.15183 28.716472
3644 2 24.725809 49.15183 41.497456
3645 2 24.725809 49.15183 54.278439
3646 2 24.17887 48.126123 30.079156
3647 2 24.17887 48.126123 42.86014
3648 2 24.17887 48.126123 55.641123
3649 2 21.205721 47.471161 27.95132
3650 2 21.205721 47.471161 40.731528
3651 2 21.205721 47.471161 53.512511
3652 2 21.737099 47.366317 29.688044
3653 2 21.737099 47.366317 42.469028
3654 2 21.737099 47.366317 55.250011
3655 2 23.18419 48.412235 27.270754
3656 2 23.18419 48.412235 40.051738
3657 2 23.18419 48.412235 52.831945
3658 2 24.636727 48.895404 20.84379
3659 2 24.636727 48.895404 33.624773
3660 2 24.636727 48.895404 46.405757
3661 2 21.099134 48.477289 22.669755
3662 2 21.099134 48.477289 35.450739
3663 2 21.099134 48.477289 48.231722
3664 2 24.753428 47.994752 22.372541
3665 2 24.753428 47.994752 35.153525
3666 2 24.753428 47.994752 47.934508
3667 2 22.327605 47.42316 23.292896
3668 2 22.327605 47.42316 36.07388
3669 2 22.327605 47.42316 48.854087
3670 2 22.343554 48.872666 20.728939
3671 2 22.343554 48.872666 33.509923
3672 2 22.343554 48.872666 46.290906
3673 6 19.239699 38.869496 31.317678
3674 6 19.239699 38.869496 44.098661
3675 6 19.239699 38.869496 56.878869
3676 6 19.531063 38.710967 25.020308
3677 6 19.531063 38.710967 37.801291
3678 6 19.531063 38.710967 50.582275
3679 6 25.858196 39.110133 31.590835
3680 6 25.858196 39.110133 44.371819
3681 6 25.858196 39.110133 57.152802
3682 6 25.672642 39.295822 24.837944
3683 6 25.672642 39.295822 37.618928
3684 6 25.672642 39.295822 50.399911
3685 6 13.270448 45.410274 25.23216
3686 6 13.270448 45.410274 38.013144
3687 6 13.270448 45.410274 50.794127
3688 6 12.98492 45.29785 31.638948
3689 6 12.98492 45.29785 44.419932
3690 6 12.98492 45.29785 57.200915
3691 6 19.718951 44.905631 25.178615
3692 6 19.718951 44.905631 37.959599
3693 6 19.718951 44.905631 50.740582
3694 6 19.622478 45.21448 31.562123
3695 6 19.622478 45.21448 44.343106
3696 6 19.622478 45.21448 57.12409
3697 3 15.994636 39.384245 31.4496
3698 3 15.994636 39.384245 44.229808
3699 3 15.994636 39.384245 57.010791
3700 3 19.012911 38.73623 28.388993
3701 3 19.012911 38.73623 41.169977
3702 3 19.012911 38.73623 53.95096
3703 3 19.488661 41.820299 25.023412
3704 3 19.488661 41.820299 37.804395
3705 3 19.488661 41.820299 50.585379
3706 3 15.990357 39.174556 25.031948
3707 3 15.990357 39.174556 37.812156
3708 3 15.990357 39.174556 50.593139
3709 3 19.215192 39.047606 21.872787
3710 3 19.215192 39.047606 34.652994
3711 3 19.215192 39.047606 47.433978
3712 3 25.6812 39.12466 27.942784
3713 3 25.6812 39.12466 40.722992
3714 3 25.6812 39.12466 53.503975
3715 3 19.681218 41.915038 31.453481
3716 3 19.681218 41.915038 44.234464
3717 3 19.681218 41.915038 57.014672
3718 3 22.72361 38.626333 31.101945
3719 3 22.72361 38.626333 43.882929
3720 3 22.72361 38.626333 56.663912
3721 3 25.319038 38.889076 21.799065
3722 3 25.319038 38.889076 34.580049
3723 3 25.319038 38.889076 47.360256
3724 3 25.56411 42.239677 25.13283
3725 3 25.56411 42.239677 37.913814
3726 3 25.56411 42.239677 50.694797
3727 3 25.823964 42.135464 32.040149
3728 3 25.823964 42.135464 44.821132
3729 3 25.823964 42.135464 57.60134
3730 3 22.591349 38.855601 24.920978
3731 3 22.591349 38.855601 37.701185
3732 3 22.591349 38.855601 50.482169
3733 3 16.294558 44.452779 25.951527
3734 3 16.294558 44.452779 38.732511
3735 3 16.294558 44.452779 51.513494
3736 3 13.085283 45.013002 28.488323
3737 3 13.085283 45.013002 41.269307
3738 3 13.085283 45.013002 54.049514
3739 3 19.34084 44.784365 28.545749
3740 3 19.34084 44.784365 41.326732
3741 3 19.34084 44.784365 54.10694
3742 3 13.373145 48.426762 31.879513
3743 3 13.373145 48.426762 44.659721
3744 3 13.373145 48.426762 57.440704
3745 3 16.215979 44.838682 31.680077
3746 3 16.215979 44.838682 44.461061
3747 3 16.215979 44.838682 57.242044
3748 3 19.358345 45.171531 22.093176
3749 3 19.358345 45.171531 34.874159
3750 3 19.358345 45.171531 47.655143
3751 3 13.434608 45.338904 22.078431
3752 3 13.434608 45.338904 34.858639
3753 3 13.434608 45.338904 47.639622
3754 3 19.526784 48.025069 25.381155
3755 3 19.526784 48.025069 38.162139
3756 3 19.526784 48.025069 50.943122
3757 3 19.601472 48.123597 31.015031
3758 3 19.601472 48.123597 43.796015
3759 3 19.601472 48.123597 56.576222
3760 3 23.025477 45.292166 24.650148
3761 3 23.025477 45.292166 37.431132
3762 3 23.025477 45.292166 50.212115
3763 3 25.670308 48.312443 25.102566
3764 3 25.670308 48.312443 37.883549
3765 3 25.670308 48.312443 50.664533
3766 3 22.674596 45.439327 31.704134
3767 3 22.674596 45.439327 44.484341
3768 3 22.674596 45.439327 57.265325
3769 1 29.074084 42.267467 28.679223
3770 1 29.074084 42.267467 41.460207
3771 1 29.074084 42.267467 54.24119
3772 1 29.308653 41.868932 22.174657
3773 1 29.308653 41.868932 34.955641
3774 1 29.308653 41.868932 47.736624
3775 1 35.338589 42.117779 28.280351
3776 1 35.338589 42.117779 41.061335
3777 1 35.338589 42.117779 53.841542
3778 1 35.720978 41.968092 21.736984
3779 1 35.720978 41.968092 34.517968
3780 1 35.720978 41.968092 47.298175
3781 1 28.63879 47.889908 27.858198
3782 1 28.63879 47.889908 40.639182
3783 1 28.63879 47.889908 53.419389
3784 1 28.99784 48.280232 21.754833
3785 1 28.99784 48.280232 34.53504
3786 1 28.99784 48.280232 47.316024
3787 1 36.004951 48.165282 28.304408
3788 1 36.004951 48.165282 41.085391
3789 1 36.004951 48.165282 53.865599
3790 1 35.793722 48.464026 21.646966
3791 1 35.793722 48.464026 34.42795
3792 1 35.793722 48.464026 47.208933
3793 4 28.132697 41.933986 27.802325
3794 4 28.132697 41.933986 40.583309
3795 4 28.132697 41.933986 53.363516
3796 4 30.247706 41.709139 28.749065
3797 4 30.247706 41.709139 41.530048
3798 4 30.247706 41.709139 54.311032
3799 4 29.226573 42.041988 20.880263
3800 4 29.226573 42.041988 33.661246
3801 4 29.226573 42.041988 46.44223
3802 4 28.426783 42.44305 23.025171
3803 4 28.426783 42.44305 35.806154
3804 4 28.426783 42.44305 48.586362
3805 4 36.195951 42.783478 29.00903
3806 4 36.195951 42.783478 41.789238
3807 4 36.195951 42.783478 54.570221
3808 4 35.633842 41.516503 27.14504
3809 4 35.633842 41.516503 39.925247
3810 4 35.633842 41.516503 52.706231
3811 4 36.135267 43.218014 21.586437
3812 4 36.135267 43.218014 34.366645
3813 4 36.135267 43.218014 47.147628
3814 4 34.502232 41.619452 21.465379
3815 4 34.502232 41.619452 34.245586
3816 4 34.502232 41.619452 47.02657
3817 4 29.432745 47.649271 28.838307
3818 4 29.432745 47.649271 41.618514
3819 4 29.432745 47.649271 54.399498
3820 4 28.652016 48.968037 27.117103
3821 4 28.652016 48.968037 39.898087
3822 4 28.652016 48.968037 52.678294
3823 4 28.639957 48.516448 22.99025
3824 4 28.639957 48.516448 35.770458
3825 4 28.639957 48.516448 48.551441
3826 4 29.457641 49.201095 20.911303
3827 4 29.457641 49.201095 33.692287
3828 4 29.457641 49.201095 46.47327
3829 4 34.894347 47.647376 28.651287
3830 4 34.894347 47.647376 41.43227
3831 4 34.894347 47.647376 54.213254
3832 4 37.048257 48.423604 29.082752
3833 4 37.048257 48.423604 41.862959
3834 4 37.048257 48.423604 54.643943
3835 4 37.090269 48.380024 21.657831
3836 4 37.090269 48.380024 34.438814
3837 4 37.090269 48.380024 47.219798
3838 4 34.959311 48.097702 22.605346
3839 4 34.959311 48.097702 35.38633
3840 4 34.959311 48.097702 48.167313
3841 2 28.333812 41.183653 27.129519
3842 2 28.333812 41.183653 39.910503
3843 2 28.333812 41.183653 52.69071
3844 2 30.403696 40.778802 28.319928
3845 2 30.403696 40.778802 41.100911
3846 2 30.403696 40.778802 53.881119
3847 2 28.904868 43.144749 29.268219
3848 2 28.904868 43.144749 42.048427
3849 2 28.904868 43.144749 54.82941
3850 2 27.299453 42.43926 27.831038
3851 2 27.299453 42.43926 40.612021
3852 2 27.299453 42.43926 53.393005
3853 2 31.044773 42.183465 29.305468
3854 2 31.044773 42.183465 42.086452
3855 2 31.044773 42.183465 54.867435
3856 2 28.418225 42.559894 20.516311
3857 2 28.418225 42.559894 33.297295
3858 2 28.418225 42.559894 46.078278
3859 2 27.928081 43.186435 22.586722
3860 2 27.928081 43.186435 35.367705
3861 2 27.928081 43.186435 48.147913
3862 2 30.058262 41.304919 22.60457
3863 2 30.058262 41.304919 35.385554
3864 2 30.058262 41.304919 48.165761
3865 2 29.698823 41.429343 20.235393
3866 2 29.698823 41.429343 33.016377
3867 2 29.698823 41.429343 45.79736
3868 2 28.79867 42.69316 23.916813
3869 2 28.79867 42.69316 36.697021
3870 2 28.79867 42.69316 49.478004
3871 2 36.613351 41.634611 26.793504
3872 2 36.613351 41.634611 39.574488
3873 2 36.613351 41.634611 52.354695
3874 2 35.048003 40.806592 26.749272
3875 2 35.048003 40.806592 39.530255
3876 2 35.048003 40.806592 52.310463
3877 2 34.333016 42.014198 28.698624
3878 2 34.333016 42.014198 41.479607
3879 2 34.333016 42.014198 54.260591
3880 2 37.167681 42.859901 28.786314
3881 2 37.167681 42.859901 41.567297
3882 2 37.167681 42.859901 54.347505
3883 2 35.856741 43.171908 29.899896
3884 2 35.856741 43.171908 42.680104
3885 2 35.856741 43.171908 55.461088
3886 2 35.573935 44.028348 21.482451
3887 2 35.573935 44.028348 34.262658
3888 2 35.573935 44.028348 47.043642
3889 2 34.143182 40.767433 21.866579
3890 2 34.143182 40.767433 34.646786
3891 2 34.143182 40.767433 47.42777
3892 2 36.440634 41.18618 21.999278
3893 2 36.440634 41.18618 34.779485
3894 2 36.440634 41.18618 47.560469
3895 2 33.735896 42.246624 21.250422
3896 2 33.735896 42.246624 34.03063
3897 2 33.735896 42.246624 46.811613
3898 2 37.038143 43.433387 21.9403
3899 2 37.038143 43.433387 34.721284
3900 2 37.038143 43.433387 47.501491
3901 2 29.337439 46.73725 29.210794
3902 2 29.337439 46.73725 41.991002
3903 2 29.337439 46.73725 54.771985
3904 2 30.255486 48.084438 29.095944
3905 2 30.255486 48.084438 41.876927
3906 2 30.255486 48.084438 54.657911
3907 2 29.320712 49.721527 27.152024
3908 2 29.320712 49.721527 39.933007
3909 2 29.320712 49.721527 52.713991
3910 2 27.848336 47.201471 27.789909
3911 2 27.848336 47.201471 40.570116
3912 2 27.848336 47.201471 53.3511
3913 2 27.856505 48.91372 26.430329
3914 2 27.856505 48.91372 39.211312
3915 2 27.856505 48.91372 51.992296
3916 2 28.20155 47.75222 23.408523
3917 2 28.20155 47.75222 36.189506
3918 2 28.20155 47.75222 48.97049
3919 2 28.61545 49.478996 23.402315
3920 2 28.61545 49.478996 36.182522
3921 2 28.61545 49.478996 48.963506
3922 2 29.581733 50.151642 21.300863
3923 2 29.581733 50.151642 34.081847
3924 2 29.581733 50.151642 46.86283
3925 2 28.848073 47.30821 21.282239
3926 2 28.848073 47.30821 34.062446
3927 2 28.848073 47.30821 46.84343
3928 2 29.757173 48.916878 20.00026
3929 2 29.757173 48.916878 32.780468
3930 2 29.757173 48.916878 45.561451
3931 2 37.692446 49.15183 28.716472
3932 2 37.692446 49.15183 41.497456
3933 2 37.692446 49.15183 54.278439
3934 2 37.145507 48.126123 30.079156
3935 2 37.145507 48.126123 42.86014
3936 2 37.145507 48.126123 55.641123
3937 2 34.172747 47.471161 27.95132
3938 2 34.172747 47.471161 40.731528
3939 2 34.172747 47.471161 53.512511
3940 2 34.703736 47.366317 29.688044
3941 2 34.703736 47.366317 42.469028
3942 2 34.703736 47.366317 55.250011
3943 2 36.150827 48.412235 27.270754
3944 2 36.150827 48.412235 40.051738
3945 2 36.150827 48.412235 52.831945
3946 2 37.603364 48.895404 20.84379
3947 2 37.603364 48.895404 33.624773
3948 2 37.603364 48.895404 46.405757
3949 2 34.065771 48.477289 22.669755
3950 2 34.065771 48.477289 35.450739
3951 2 34.065771 48.477289 48.231722
3952 2 37.720065 47.994752 22.372541
3953 2 37.720065 47.994752 35.153525
3954 2 37.720065 47.994752 47.934508
3955 2 35.294242 47.42316 23.292896
3956 2 35.294242 47.42316 36.07388
3957 2 35.294242 47.42316 48.854087
3958 2 35.310191 48.872666 20.728939
3959 2 35.310191 48.872666 33.509923
3960 2 35.310191 48.872666 46.290906
3961 6 32.206336 38.869496 31.317678
3962 6 32.206336 38.869496 44.098661
3963 6 32.206336 38.869496 56.878869
3964 6 32.4977 38.710967 25.020308
3965 6 32.4977 38.710967 37.801291
3966 6 32.4977 38.710967 50.582275
3967 6 38.824833 39.110133 31.590835
3968 6 38.824833 39.110133 44.371819
3969 6 38.824833 39.110133 57.152802
3970 6 38.639279 39.295822 24.837944
3971 6 38.639279 39.295822 37.618928
3972 6 38.639279 39.295822 50.399911
3973 6 26.237085 45.410274 25.23216
3974 6 26.237085 45.410274 38.013144
3975 6 26.237085 45.410274 50.794127
3976 6 25.951946 45.29785 31.638948
3977 6 25.951946 45.29785 44.419932
3978 6 25.951946 45.29785 57.200915
3979 6 32.685977 44.905631 25.178615
3980 6 32.685977 44.905631 37.959599
3981 6 32.685977 44.905631 50.740582
3982 6 32.589115 45.21448 31.562123
3983 6 32.589115 45.21448 44.343106
3984 6 32.589115 45.21448 57.12409
3985 3 28.961273 39.384245 31.4496
3986 3 28.961273 39.384245 44.229808
3987 3 28.961273 39.384245 57.010791
3988 3 31.979548 38.73623 28.388993
3989 3 31.979548 38.73623 41.169977
3990 3 31.979548 38.73623 53.95096
3991 3 32.455298 41.820299 25.023412
3992 3 32.455298 41.820299 37.804395
3993 3 32.455298 41.820299 50.585379
3994 3 28.956994 39.174556 25.031948
3995 3 28.956994 39.174556 37.812156
3996 3 28.956994 39.174556 50.593139
3997 3 32.181829 39.047606 21.872787
3998 3 32.181829 39.047606 34.652994
3999 3 32.181829 39.047606 47.433978
4000 3 38.648226 39.12466 27.942784
4001 3 38.648226 39.12466 40.722992
4002 3 38.648226 39.12466 53.503975
4003 3 32.647855 41.915038 31.453481
4004 3 32.647855 41.915038 44.234464
4005 3 32.647855 41.915038 57.014672
4006 3 35.690247 38.626333 31.101945
4007 3 35.690247 38.626333 43.882929
4008 3 35.690247 38.626333 56.663912
4009 3 38.285675 38.889076 21.799065
4010 3 38.285675 38.889076 34.580049
4011 3 38.285675 38.889076 47.360256
4012 3 38.530747 42.239677 25.13283
4013 3 38.530747 42.239677 37.913814
4014 3 38.530747 42.239677 50.694797
4015 3 38.790601 42.135464 32.040149
4016 3 38.790601 42.135464 44.821132
4017 3 38.790601 42.135464 57.60134
4018 3 35.557986 38.855601 24.920978
4019 3 35.557986 38.855601 37.701185
4020 3 35.557986 38.855601 50.482169
4021 3 29.261195 44.452779 25.951527
4022 3 29.261195 44.452779 38.732511
4023 3 29.261195 44.452779 51.513494
4024 3 26.05192 45.013002 28.488323
4025 3 26.05192 45.013002 41.269307
4026 3 26.05192 45.013002 54.049514
4027 3 32.307477 44.784365 28.545749
4028 3 32.307477 44.784365 41.326732
4029 3 32.307477 44.784365 54.10694
4030 3 26.339782 48.426762 31.879513
4031 3 26.339782 48.426762 44.659721
4032 3 26.339782 48.426762 57.440704
4033 3 29.182616 44.838682 31.680077
4034 3 29.182616 44.838682 44.461061
4035 3 29.182616 44.838682 57.242044
4036 3 32.325371 45.171531 22.093176
4037 3 32.325371 45.171531 34.874159
4038 3 32.325371 45.171531 47.655143
4039 3 26.401245 45.338904 22.078431
4040 3 26.401245 45.338904 34.858639
4041 3 26.401245 45.338904 47.639622
4042 3 32.493421 48.025069 25.381155
4043 3 32.493421 48.025069 38.162139
4044 3 32.493421 48.025069 50.943122
4045 3 32.568109 48.123597 31.015031
4046 3 32.568109 48.123597 43.796015
4047 3 32.568109 48.123597 56.576222
4048 3 35.992503 45.292166 24.650148
4049 3 35.992503 45.292166 37.431132
4050 3 35.992503 45.292166 50.212115
4051 3 38.636945 48.312443 25.102566
4052 3 38.636945 48.312443 37.883549
4053 3 38.636945 48.312443 50.664533
4054 3 35.641233 45.439327 31.704134
4055 3 35.641233 45.439327 44.484341
4056 3 35.641233 45.439327 57.265325
4057 1 3.140421 54.899327 28.679223
4058 1 3.140421 54.899327 41.460207
4059 1 3.140421 54.899327 54.24119
4060 1 3.375379 54.500792 22.174657
4061 1 3.375379 54.500792 34.955641
4062 1 3.375379 54.500792 47.736624
4063 1 9.404926 54.749639 28.280351
4064 1 9.404926 54.749639 41.061335
4065 1 9.404926 54.749639 53.841542
4066 1 9.787315 54.599952 21.736984
4067 1 9.787315 54.599952 34.517968
4068 1 9.787315 54.599952 47.298175
4069 1 2.705127 60.521768 27.858198
4070 1 2.705127 60.521768 40.639182
4071 1 2.705127 60.521768 53.419389
4072 1 3.064177 60.912092 21.754833
4073 1 3.064177 60.912092 34.53504
4074 1 3.064177 60.912092 47.316024
4075 1 10.071288 60.797142 28.304408
4076 1 10.071288 60.797142 41.085391
4077 1 10.071288 60.797142 53.865599
4078 1 9.860448 61.095886 21.646966
4079 1 9.860448 61.095886 34.42795
4080 1 9.860448 61.095886 47.208933
4081 4 2.199034 54.565846 27.802325
4082 4 2.199034 54.565846 40.583309
4083 4 2.199034 54.565846 53.363516
4084 4 4.314432 54.340999 28.749065
4085 4 4.314432 54.340999 41.530048
4086 4 4.314432 54.340999 54.311032
4087 4 3.293299 54.673848 20.880263
4088 4 3.293299 54.673848 33.661246
4089 4 3.293299 54.673848 46.44223
4090 4 2.493509 55.07491 23.025171
4091 4 2.493509 55.07491 35.806154
4092 4 2.493509 55.07491 48.586362
4093 4 10.262677 55.415338 29.00903
4094 4 10.262677 55.415338 41.789238
4095 4 10.262677 55.415338 54.570221
4096 4 9.700568 54.148363 27.14504
4097 4 9.700568 54.148363 39.925247
4098 4 9.700568 54.148363 52.706231
4099 4 10.201993 55.849874 21.586437
4100 4 10.201993 55.849874 34.366645
4101 4 10.201993 55.849874 47.147628
4102 4 8.568569 54.251312 21.465379
4103 4 8.568569 54.251312 34.245586
4104 4 8.568569 54.251312 47.02657
4105 4 3.499471 60.281131 28.838307
4106 4 3.499471 60.281131 41.618514
4107 4 3.499471 60.281131 54.399498
4108 4 2.718353 61.599897 27.117103
4109 4 2.718353 61.599897 39.898087
4110 4 2.718353 61.599897 52.678294
4111 4 2.706683 61.148308 22.99025
4112 4 2.706683 61.148308 35.770458
4113 4 2.706683 61.148308 48.551441
4114 4 3.523978 61.832955 20.911303
4115 4 3.523978 61.832955 33.692287
4116 4 3.523978 61.832955 46.47327
4117 4 8.960684 60.279236 28.651287
4118 4 8.960684 60.279236 41.43227
4119 4 8.960684 60.279236 54.213254
4120 4 11.114594 61.055464 29.082752
4121 4 11.114594 61.055464 41.862959
4122 4 11.114594 61.055464 54.643943
4123 4 11.156606 61.011884 21.657831
4124 4 11.156606 61.011884 34.438814
4125 4 11.156606 61.011884 47.219798
4126 4 9.025648 60.729562 22.605346
4127 4 9.025648 60.729562 35.38633
4128 4 9.025648 60.729562 48.167313
4129 2 2.400538 53.815513 27.129519
4130 2 2.400538 53.815513 39.910503
4131 2 2.400538 53.815513 52.69071
4132 2 4.470033 53.410662 28.319928
4133 2 4.470033 53.410662 41.100911
4134 2 4.470033 53.410662 53.881119
4135 2 2.971205 55.776609 29.268219
4136 2 2.971205 55.776609 42.048427
4137 2 2.971205 55.776609 54.82941
4138 2 1.366179 55.07112 27.831038
4139 2 1.366179 55.07112 40.612021
4140 2 1.366179 55.07112 53.393005
4141 2 5.111499 54.815325 29.305468
4142 2 5.111499 54.815325 42.086452
4143 2 5.111499 54.815325 54.867435
4144 2 2.484951 55.191754 20.516311
4145 2 2.484951 55.191754 33.297295
4146 2 2.484951 55.191754 46.078278
4147 2 1.994807 55.818295 22.586722
4148 2 1.994807 55.818295 35.367705
4149 2 1.994807 55.818295 48.147913
4150 2 4.124599 53.936779 22.60457
4151 2 4.124599 53.936779 35.385554
4152 2 4.124599 53.936779 48.165761
4153 2 3.76516 54.061203 20.235393
4154 2 3.76516 54.061203 33.016377
4155 2 3.76516 54.061203 45.79736
4156 2 2.865007 55.32502 23.916813
4157 2 2.865007 55.32502 36.697021
4158 2 2.865007 55.32502 49.478004
4159 2 10.679688 54.266471 26.793504
4160 2 10.679688 54.266471 39.574488
4161 2 10.679688 54.266471 52.354695
4162 2 9.11434 53.438452 26.749272
4163 2 9.11434 53.438452 39.530255
4164 2 9.11434 53.438452 52.310463
4165 2 8.399353 54.646058 28.698624
4166 2 8.399353 54.646058 41.479607
4167 2 8.399353 54.646058 54.260591
4168 2 11.234018 55.491761 28.786314
4169 2 11.234018 55.491761 41.567297
4170 2 11.234018 55.491761 54.347505
4171 2 9.923078 55.803768 29.899896
4172 2 9.923078 55.803768 42.680104
4173 2 9.923078 55.803768 55.461088
4174 2 9.640272 56.660208 21.482451
4175 2 9.640272 56.660208 34.262658
4176 2 9.640272 56.660208 47.043642
4177 2 8.209908 53.399293 21.866579
4178 2 8.209908 53.399293 34.646786
4179 2 8.209908 53.399293 47.42777
4180 2 10.506971 53.81804 21.999278
4181 2 10.506971 53.81804 34.779485
4182 2 10.506971 53.81804 47.560469
4183 2 7.802233 54.878484 21.250422
4184 2 7.802233 54.878484 34.03063
4185 2 7.802233 54.878484 46.811613
4186 2 11.104869 56.065247 21.9403
4187 2 11.104869 56.065247 34.721284
4188 2 11.104869 56.065247 47.501491
4189 2 3.404165 59.36911 29.210794
4190 2 3.404165 59.36911 41.991002
4191 2 3.404165 59.36911 54.771985
4192 2 4.321823 60.716298 29.095944
4193 2 4.321823 60.716298 41.876927
4194 2 4.321823 60.716298 54.657911
4195 2 3.387049 62.353387 27.152024
4196 2 3.387049 62.353387 39.933007
4197 2 3.387049 62.353387 52.713991
4198 2 1.914673 59.833331 27.789909
4199 2 1.914673 59.833331 40.570116
4200 2 1.914673 59.833331 53.3511
4201 2 1.923231 61.54558 26.430329
4202 2 1.923231 61.54558 39.211312
4203 2 1.923231 61.54558 51.992296
4204 2 2.268276 60.38408 23.408523
4205 2 2.268276 60.38408 36.189506
4206 2 2.268276 60.38408 48.97049
4207 2 2.681787 62.110856 23.402315
4208 2 2.681787 62.110856 36.182522
4209 2 2.681787 62.110856 48.963506
4210 2 3.648459 62.783502 21.300863
4211 2 3.648459 62.783502 34.081847
4212 2 3.648459 62.783502 46.86283
4213 2 2.91441 59.94007 21.282239
4214 2 2.91441 59.94007 34.062446
4215 2 2.91441 59.94007 46.84343
4216 2 3.82351 61.548738 20.00026
4217 2 3.82351 61.548738 32.780468
4218 2 3.82351 61.548738 45.561451
4219 2 11.758783 61.78369 28.716472
4220 2 11.758783 61.78369 41.497456
4221 2 11.758783 61.78369 54.278439
4222 2 11.211844 60.757983 30.079156
4223 2 11.211844 60.757983 42.86014
4224 2 11.211844 60.757983 55.641123
4225 2 8.239084 60.103021 27.95132
4226 2 8.239084 60.103021 40.731528
4227 2 8.239084 60.103021 53.512511
4228 2 8.770073 59.998177 29.688044
4229 2 8.770073 59.998177 42.469028
4230 2 8.770073 59.998177 55.250011
4231 2 10.217553 61.044095 27.270754
4232 2 10.217553 61.044095 40.051738
4233 2 10.217553 61.044095 52.831945
4234 2 11.669701 61.527264 20.84379
4235 2 11.669701 61.527264 33.624773
4236 2 11.669701 61.527264 46.405757
4237 2 8.132108 61.109149 22.669755
4238 2 8.132108 61.109149 35.450739
4239 2 8.132108 61.109149 48.231722
4240 2 11.786402 60.626612 22.372541
4241 2 11.786402 60.626612 35.153525
4242 2 11.786402 60.626612 47.934508
4243 2 9.360579 60.05502 23.292896
4244 2 9.360579 60.05502 36.07388
4245 2 9.360579 60.05502 48.854087
4246 2 9.376917 61.504526 20.728939
4247 2 9.376917 61.504526 33.509923
4248 2 9.376917 61.504526 46.290906
4249 6 6.273062 51.501356 31.317678
4250 6 6.273062 51.501356 44.098661
4251 6 6.273062 51.501356 56.878869
4252 6 6.564037 51.342827 25.020308
4253 6 6.564037 51.342827 37.801291
4254 6 6.564037 51.342827 50.582275
4255 6 12.891559 51.741993 31.590835
4256 6 12.891559 51.741993 44.371819
4257 6 12.891559 51.741993 57.152802
4258 6 12.705616 51.927682 24.837944
4259 6 12.705616 51.927682 37.618928
4260 6 12.705616 51.927682 50.399911
4261 6 0.303811 58.042134 25.23216
4262 6 0.303811 58.042134 38.013144
4263 6 0.303811 58.042134 50.794127
4264 6 0.018283 57.92971 31.638948
4265 6 0.018283 57.92971 44.419932
4266 6 0.018283 57.92971 57.200915
4267 6 6.752314 57.537491 25.178615
4268 6 6.752314 57.537491 37.959599
4269 6 6.752314 57.537491 50.740582
4270 6 6.655452 57.84634 31.562123
4271 6 6.655452 57.84634 44.343106
4272 6 6.655452 57.84634 57.12409
4273 3 3.027999 52.016105 31.4496
4274 3 3.027999 52.016105 44.229808
4275 3 3.027999 52.016105 57.010791
4276 3 6.046274 51.36809 28.388993
4277 3 6.046274 51.36809 41.169977
4278 3 6.046274 51.36809 53.95096
4279 3 6.522024 54.452159 25.023412
4280 3 6.522024 54.452159 37.804395
4281 3 6.522024 54.452159 50.585379
4282 3 3.02372 51.806416 25.031948
4283 3 3.02372 51.806416 37.812156
4284 3 3.02372 51.806416 50.593139
4285 3 6.248166 51.679466 21.872787
4286 3 6.248166 51.679466 34.652994
4287 3 6.248166 51.679466 47.433978
4288 3 12.714563 51.75652 27.942784
4289 3 12.714563 51.75652 40.722992
4290 3 12.714563 51.75652 53.503975
4291 3 6.714581 54.546898 31.453481
4292 3 6.714581 54.546898 44.234464
4293 3 6.714581 54.546898 57.014672
4294 3 9.756584 51.258193 31.101945
4295 3 9.756584 51.258193 43.882929
4296 3 9.756584 51.258193 56.663912
4297 3 12.352401 51.520936 21.799065
4298 3 12.352401 51.520936 34.580049
4299 3 12.352401 51.520936 47.360256
4300 3 12.597473 54.871537 25.13283
4301 3 12.597473 54.871537 37.913814
4302 3 12.597473 54.871537 50.694797
4303 3 12.856938 54.767324 32.040149
4304 3 12.856938 54.767324 44.821132
4305 3 12.856938 54.767324 57.60134
4306 3 9.624712 51.487461 24.920978
4307 3 9.624712 51.487461 37.701185
4308 3 9.624712 51.487461 50.482169
4309 3 3.327921 57.084639 25.951527
4310 3 3.327921 57.084639 38.732511
4311 3 3.327921 57.084639 51.513494
4312 3 0.118646 57.644862 28.488323
4313 3 0.118646 57.644862 41.269307
4314 3 0.118646 57.644862 54.049514
4315 3 6.374203 57.416225 28.545749
4316 3 6.374203 57.416225 41.326732
4317 3 6.374203 57.416225 54.10694
4318 3 0.406508 61.058622 31.879513
4319 3 0.406508 61.058622 44.659721
4320 3 0.406508 61.058622 57.440704
4321 3 3.249342 57.470542 31.680077
4322 3 3.249342 57.470542 44.461061
4323 3 3.249342 57.470542 57.242044
4324 3 6.391708 57.803391 22.093176
4325 3 6.391708 57.803391 34.874159
4326 3 6.391708 57.803391 47.655143
4327 3 0.467582 57.970764 22.078431
4328 3 0.467582 57.970764 34.858639
4329 3 0.467582 57.970764 47.639622
4330 3 6.559758 60.656929 25.381155
4331 3 6.559758 60.656929 38.162139
4332 3 6.559758 60.656929 50.943122
4333 3 6.634446 60.755457 31.015031
4334 3 6.634446 60.755457 43.796015
4335 3 6.634446 60.755457 56.576222
4336 3 10.05884 57.924026 24.650148
4337 3 10.05884 57.924026 37.431132
4338 3 10.05884 57.924026 50.212115
4339 3 12.703282 60.944303 25.102566
4340 3 12.703282 60.944303 37.883549
4341 3 12.703282 60.944303 50.664533
4342 3 9.707959 58.071187 31.704134
4343 3 9.707959 58.071187 44.484341
4344 3 9.707959 58.071187 57.265325
4345 1 16.107058 54.899327 28.679223
4346 1 16.107058 54.899327 41.460207
4347 1 16.107058 54.899327 54.24119
4348 1 16.342016 54.500792 22.174657
4349 1 16.342016 54.500792 34.955641
4350 1 16.342016 54.500792 47.736624
4351 1 22.371952 54.749639 28.280351
4352 1 22.371952 54.749639 41.061335
4353 1 22.371952 54.749639 53.841542
4354 1 22.753952 54.599952 21.736984
4355 1 22.753952 54.599952 34.517968
4356 1 22.753952 54.599952 47.298175
4357 1 15.671764 60.521768 27.858198
4358 1 15.671764 60.521768 40.639182
4359 1 15.671764 60.521768 53.419389
4360 1 16.030814 60.912092 21.754833
4361 1 16.030814 60.912092 34.53504
4362 1 16.030814 60.912092 47.316024
4363 1 23.038314 60.797142 28.304408
4364 1 23.038314 60.797142 41.085391
4365 1 23.038314 60.797142 53.865599
4366 1 22.827085 61.095886 21.646966
4367 1 22.827085 61.095886 34.42795
4368 1 22.827085 61.095886 47.208933
4369 4 15.165671 54.565846 27.802325
4370 4 15.165671 54.565846 40.583309
4371 4 15.165671 54.565846 53.363516
4372 4 17.281069 54.340999 28.749065
4373 4 17.281069 54.340999 41.530048
4374 4 17.281069 54.340999 54.311032
4375 4 16.259936 54.673848 20.880263
4376 4 16.259936 54.673848 33.661246
4377 4 16.259936 54.673848 46.44223
4378 4 15.460146 55.07491 23.025171
4379 4 15.460146 55.07491 35.806154
4380 4 15.460146 55.07491 48.586362
4381 4 23.229314 55.415338 29.00903
4382 4 23.229314 55.415338 41.789238
4383 4 23.229314 55.415338 54.570221
4384 4 22.667205 54.148363 27.14504
4385 4 22.667205 54.148363 39.925247
4386 4 22.667205 54.148363 52.706231
4387 4 23.16863 55.849874 21.586437
4388 4 23.16863 55.849874 34.366645
4389 4 23.16863 55.849874 47.147628
4390 4 21.535595 54.251312 21.465379
4391 4 21.535595 54.251312 34.245586
4392 4 21.535595 54.251312 47.02657
4393 4 16.466108 60.281131 28.838307
4394 4 16.466108 60.281131 41.618514
4395 4 16.466108 60.281131 54.399498
4396 4 15.685379 61.599897 27.117103
4397 4 15.685379 61.599897 39.898087
4398 4 15.685379 61.599897 52.678294
4399 4 15.67332 61.148308 22.99025
4400 4 15.67332 61.148308 35.770458
4401 4 15.67332 61.148308 48.551441
4402 4 16.491004 61.832955 20.911303
4403 4 16.491004 61.832955 33.692287
4404 4 16.491004 61.832955 46.47327
4405 4 21.92771 60.279236 28.651287
4406 4 21.92771 60.279236 41.43227
4407 4 21.92771 60.279236 54.213254
4408 4 24.081231 61.055464 29.082752
4409 4 24.081231 61.055464 41.862959
4410 4 24.081231 61.055464 54.643943
4411 4 24.123632 61.011884 21.657831
4412 4 24.123632 61.011884 34.438814
4413 4 24.123632 61.011884 47.219798
4414 4 21.992285 60.729562 22.605346
4415 4 21.992285 60.729562 35.38633
4416 4 21.992285 60.729562 48.167313
4417 2 15.367175 53.815513 27.129519
4418 2 15.367175 53.815513 39.910503
4419 2 15.367175 53.815513 52.69071
4420 2 17.43667 53.410662 28.319928
4421 2 17.43667 53.410662 41.100911
4422 2 17.43667 53.410662 53.881119
4423 2 15.937842 55.776609 29.268219
4424 2 15.937842 55.776609 42.048427
4425 2 15.937842 55.776609 54.82941
4426 2 14.332816 55.07112 27.831038
4427 2 14.332816 55.07112 40.612021
4428 2 14.332816 55.07112 53.393005
4429 2 18.078136 54.815325 29.305468
4430 2 18.078136 54.815325 42.086452
4431 2 18.078136 54.815325 54.867435
4432 2 15.451588 55.191754 20.516311
4433 2 15.451588 55.191754 33.297295
4434 2 15.451588 55.191754 46.078278
4435 2 14.961444 55.818295 22.586722
4436 2 14.961444 55.818295 35.367705
4437 2 14.961444 55.818295 48.147913
4438 2 17.091625 53.936779 22.60457
4439 2 17.091625 53.936779 35.385554
4440 2 17.091625 53.936779 48.165761
4441 2 16.731797 54.061203 20.235393
4442 2 16.731797 54.061203 33.016377
4443 2 16.731797 54.061203 45.79736
4444 2 15.832033 55.32502 23.916813
4445 2 15.832033 55.32502 36.697021
4446 2 15.832033 55.32502 49.478004
4447 2 23.646714 54.266471 26.793504
4448 2 23.646714 54.266471 39.574488
4449 2 23.646714 54.266471 52.354695
4450 2 22.081366 53.438452 26.749272
4451 2 22.081366 53.438452 39.530255
4452 2 22.081366 53.438452 52.310463
4453 2 21.36599 54.646058 28.698624
4454 2 21.36599 54.646058 41.479607
4455 2 21.36599 54.646058 54.260591
4456 2 24.200655 55.491761 28.786314
4457 2 24.200655 55.491761 41.567297
4458 2 24.200655 55.491761 54.347505
4459 2 22.890104 55.803768 29.899896
4460 2 22.890104 55.803768 42.680104
4461 2 22.890104 55.803768 55.461088
4462 2 22.607298 56.660208 21.482451
4463 2 22.607298 56.660208 34.262658
4464 2 22.607298 56.660208 47.043642
4465 2 21.176545 53.399293 21.866579
4466 2 21.176545 53.399293 34.646786
4467 2 21.176545 53.399293 47.42777
4468 2 23.473997 53.81804 21.999278
4469 2 23.473997 53.81804 34.779485
4470 2 23.473997 53.81804 47.560469
4471 2 20.769259 54.878484 21.250422
4472 2 20.769259 54.878484 34.03063
4473 2 20.769259 54.878484 46.811613
4474 2 24.071506 56.065247 21.9403
4475 2 24.071506 56.065247 34.721284
4476 2 24.071506 56.065247 47.501491
4477 2 16.370802 59.36911 29.210794
4478 2 16.370802 59.36911 41.991002
4479 2 16.370802 59.36911 54.771985
4480 2 17.28846 60.716298 29.095944
4481 2 17.28846 60.716298 41.876927
4482 2 17.28846 60.716298 54.657911
4483 2 16.353686 62.353387 27.152024
4484 2 16.353686 62.353387 39.933007
4485 2 16.353686 62.353387 52.713991
4486 2 14.881699 59.833331 27.789909
4487 2 14.881699 59.833331 40.570116
4488 2 14.881699 59.833331 53.3511
4489 2 14.889868 61.54558 26.430329
4490 2 14.889868 61.54558 39.211312
4491 2 14.889868 61.54558 51.992296
4492 2 15.234913 60.38408 23.408523
4493 2 15.234913 60.38408 36.189506
4494 2 15.234913 60.38408 48.97049
4495 2 15.648813 62.110856 23.402315
4496 2 15.648813 62.110856 36.182522
4497 2 15.648813 62.110856 48.963506
4498 2 16.615096 62.783502 21.300863
4499 2 16.615096 62.783502 34.081847
4500 2 16.615096 62.783502 46.86283
4501 2 15.881436 59.94007 21.282239
4502 2 15.881436 59.94007 34.062446
4503 2 15.881436 59.94007 46.84343
4504 2 16.790536 61.548738 20.00026
4505 2 16.790536 61.548738 32.780468
4506 2 16.790536 61.548738 45.561451
4507 2 24.725809 61.78369 28.716472
4508 2 24.725809 61.78369 41.497456
4509 2 24.725809 61.78369 54.278439
4510 2 24.17887 60.757983 30.079156
4511 2 24.17887 60.757983 42.86014
4512 2 24.17887 60.757983 55.641123
4513 2 21.205721 60.103021 27.95132
4514 2 21.205721 60.103021 40.731528
4515 2 21.205721 60.103021 53.512511
4516 2 21.737099 59.998177 29.688044
4517 2 21.737099 59.998177 42.469028
4518 2 21.737099 59.998177 55.250011
4519 2 23.18419 61.044095 27.270754
4520 2 23.18419 61.044095 40.051738
4521 2 23.18419 61.044095 52.831945
4522 2 24.636727 61.527264 20.84379
4523 2 24.636727 61.527264 33.624773
4524 2 24.636727 61.527264 46.405757
4525 2 21.099134 61.109149 22.669755
4526 2 21.099134 61.109149 35.450739
4527 2 21.099134 61.109149 48.231722
4528 2 24.753428 60.626612 22.372541
4529 2 24.753428 60.626612 35.153525
4530 2 24.753428 60.626612 47.934508
4531 2 22.327605 60.05502 23.292896
4532 2 22.327605 60.05502 36.07388
4533 2 22.327605 60.05502 48.854087
4534 2 22.343554 61.504526 20.728939
4535 2 22.343554 61.504526 33.509923
4536 2 22.343554 61.504526 46.290906
4537 6 19.239699 51.501356 31.317678
4538 6 19.239699 51.501356 44.098661
4539 6 19.239699 51.501356 56.878869
4540 6 19.531063 51.342827 25.020308
4541 6 19.531063 51.342827 37.801291
4542 6 19.531063 51.342827 50.582275
4543 6 25.858196 51.741993 31.590835
4544 6 25.858196 51.741993 44.371819
4545 6 25.858196 51.741993 57.152802
4546 6 25.672642 51.927682 24.837944
4547 6 25.672642 51.927682 37.618928
4548 6 25.672642 51.927682 50.399911
4549 6 13.270448 58.042134 25.23216
4550 6 13.270448 58.042134 38.013144
4551 6 13.270448 58.042134 50.794127
4552 6 12.98492 57.92971 31.638948
4553 6 12.98492 57.92971 44.419932
4554 6 12.98492 57.92971 57.200915
4555 6 19.718951 57.537491 25.178615
4556 6 19.718951 57.537491 37.959599
4557 6 19.718951 57.537491 50.740582
4558 6 19.622478 57.84634 31.562123
4559 6 19.622478 57.84634 44.343106
4560 6 19.622478 57.84634 57.12409
4561 3 15.994636 52.016105 31.4496
4562 3 15.994636 52.016105 44.229808
4563 3 15.994636 52.016105 57.010791
4564 3 19.012911 51.36809 28.388993
4565 3 19.012911 51.36809 41.169977
4566 3 19.012911 51.36809 53.95096
4567 3 19.488661 54.452159 25.023412
4568 3 19.488661 54.452159 37.804395
4569 3 19.488661 54.452159 50.585379
4570 3 15.990357 51.806416 25.031948
4571 3 15.990357 51.806416 37.812156
4572 3 15.990357 51.806416 50.593139
4573 3 19.215192 51.679466 21.872787
4574 3 19.215192 51.679466 34.652994
4575 3 19.215192 51.679466 47.433978
4576 3 25.6812 51.75652 27.942784
4577 3 25.6812 51.75652 40.722992
4578 3 25.6812 51.75652 53.503975
4579 3 19.681218 54.546898 31.453481
4580 3 19.681218 54.546898 44.234464
4581 3 19.681218 54.546898 57.014672
4582 3 22.72361 51.258193 31.101945
4583 3 22.72361 51.258193 43.882929
4584 3 22.72361 51.258193 56.663912
4585 3 25.319038 51.520936 21.799065
4586 3 25.319038 51.520936 34.580049
4587 3 25.319038 51.520936 47.360256
4588 3 25.56411 54.871537 25.13283
4589 3 25.56411 54.871537 37.913814
4590 3 25.56411 54.871537 50.694797
4591 3 25.823964 54.767324 32.040149
4592 3 25.823964 54.767324 44.821132
4593 3 25.823964 54.767324 57.60134
4594 3 22.591349 51.487461 24.920978
4595 3 22.591349 51.487461 37.701185
4596 3 22.591349 51.487461 50.482169
4597 3 16.294558 57.084639 25.951527
4598 3 16.294558 57.084639 38.732511
4599 3 16.294558 57.084639 51.513494
4600 3 13.085283 57.644862 28.488323
4601 3 13.085283 57.644862 41.269307
4602 3 13.085283 57.644862 54.049514
4603 3 19.34084 57.416225 28.545749
4604 3 19.34084 57.416225 41.326732
4605 3 19.34084 57.416225 54.10694
4606 3 13.373145 61.058622 31.879513
4607 3 13.373145 61.058622 44.659721
4608 3 13.373145 61.058622 57.440704
4609 3 16.215979 57.470542 31.680077
4610 3 16.215979 57.470542 44.461061
4611 3 16.215979 57.470542 57.242044
4612 3 19.358345 57.803391 22.093176
4613 3 19.358345 57.803391 34.874159
4614 3 19.358345 57.803391 47.655143
4615 3 13.434608 57.970764 22.078431
4616 3 13.434608 57.970764 34.858639
4617 3 13.434608 57.970764 47.639622
4618 3 19.526784 60.656929 25.381155
4619 3 19.526784 60.656929 38.162139
4620 3 19.526784 60.656929 50.943122
4621 3 19.601472 60.755457 31.015031
4622 3 19.601472 60.755457 43.796015
4623 3 19.601472 60.755457 56.576222
4624 3 23.025477 57.924026 24.650148
4625 3 23.025477 57.924026 37.431132
4626 3 23.025477 57.924026 50.212115
4627 3 25.670308 60.944303 25.102566
4628 3 25.670308 60.944303 37.883549
4629 3 25.670308 60.944303 50.664533
4630 3 22.674596 58.071187 31.704134
4631 3 22.674596 58.071187 44.484341
4632 3 22.674596 58.071187 57.265325
4633 1 29.074084 54.899327 28.679223
4634 1 29.074084 54.899327 41.460207
4635 1 29.074084 54.899327 54.24119
4636 1 29.308653 54.500792 22.174657
4637 1 29.308653 54.500792 34.955641
4638 1 29.308653 54.500792 47.736624
4639 1 35.338589 54.749639 28.280351
4640 1 35.338589 54.749639 41.061335
4641 1 35.338589 54.749639 53.841542
4642 1 35.720978 54.599952 21.736984
4643 1 35.720978 54.599952 34.517968
4644 1 35.720978 54.599952 47.298175
4645 1 28.63879 60.521768 27.858198
4646 1 28.63879 60.521768 40.639182
4647 1 28.63879 60.521768 53.419389
4648 1 28.99784 60.912092 21.754833
4649 1 28.99784 60.912092 34.53504
4650 1 28.99784 60.912092 47.316024
4651 1 36.004951 60.797142 28.304408
4652 1 36.004951 60.797142 41.085391
4653 1 36.004951 60.797142 53.865599
4654 1 35.793722 61.095886 21.646966
4655 1 35.793722 61.095886 34.42795
4656 1 35.793722 61.095886 47.208933
4657 4 28.132697 54.565846 27.802325
4658 4 28.132697 54.565846 40.583309
4659 4 28.132697 54.565846 53.363516
4660 4 30.247706 54.340999 28.749065
4661 4 30.247706 54.340999 41.530048
4662 4 30.247706 54.340999 54.311032
4663 4 29.226573 54.673848 20.880263
4664 4 29.226573 54.673848 33.661246
4665 4 29.226573 54.673848 46.44223
4666 4 28.426783 55.07491 23.025171
4667 4 28.426783 55.07491 35.806154
4668 4 28.426783 55.07491 48.586362
4669 4 36.195951 55.415338 29.00903
4670 4 36.195951 55.415338 41.789238
4671 4 36.195951 55.415338 54.570221
4672 4 35.633842 54.148363 27.14504
4673 4 35.633842 54.148363 39.925247
4674 4 35.633842 54.148363 52.706231
4675 4 36.135267 55.849874 21.586437
4676 4 36.135267 55.849874 34.366645
4677 4 36.135267 55.849874 47.147628
4678 4 34.502232 54.251312 21.465379
4679 4 34.502232 54.251312 34.245586
4680 4 34.502232 54.251312 47.02657
4681 4 29.432745 60.281131 28.838307
4682 4 29.432745 60.281131 41.618514
4683 4 29.432745 60.281131 54.399498
4684 4 28.652016 61.599897 27.117103
4685 4 28.652016 61.599897 39.898087
4686 4 28.652016 61.599897 52.678294
4687 4 28.639957 61.148308 22.99025
4688 4 28.639957 61.148308 35.770458
4689 4 28.639957 61.148308 48.551441
4690 4 29.457641 61.832955 20.911303
4691 4 29.457641 61.832955 33.692287
4692 4 29.457641 61.832955 46.47327
4693 4 34.894347 60.279236 28.651287
4694 4 34.894347 60.279236 41.43227
4695 4 34.894347 60.279236 54.213254
4696 4 37.048257 61.055464 29.082752
4697 4 37.048257 61.055464 41.862959
4698 4 37.048257 61.055464 54.643943
4699 4 37.090269 61.011884 21.657831
4700 4 37.090269 61.011884 34.438814
4701 4 37.090269 61.011884 47.219798
4702 4 34.959311 60.729562 22.605346
4703 4 34.959311 60.729562 35.38633
4704 4 34.959311 60.729562 48.167313
4705 2 28.333812 53.815513 27.129519
4706 2 28.333812 53.815513 39.910503
4707 2 28.333812 53.815513 52.69071
4708 2 30.403696 53.410662 28.319928
4709 2 30.403696 53.410662 41.100911
4710 2 30.403696 53.410662 53.881119
4711 2 28.904868 55.776609 29.268219
4712 2 28.904868 55.776609 42.048427
4713 2 28.904868 55.776609 54.82941
4714 2 27.299453 55.07112 27.831038
4715 2 27.299453 55.07112 40.612021
4716 2 27.299453 55.07112 53.393005
4717 2 31.044773 54.815325 29.305468
4718 2 31.044773 54.815325 42.086452
4719 2 31.044773 54.815325 54.867435
4720 2 28.418225 55.191754 20.516311
4721 2 28.418225 55.191754 33.297295
4722 2 28.418225 55.191754 46.078278
4723 2 27.928081 55.818295 22.586722
4724 2 27.928081 55.818295 35.367705
4725 2 27.928081 55.818295 48.147913
4726 2 30.058262 53.936779 22.60457
4727 2 30.058262 53.936779 35.385554
4728 2 30.058262 53.936779 48.165761
4729 2 29.698823 54.061203 20.235393
4730 2 29.698823 54.061203 33.016377
4731 2 29.698823 54.061203 45.79736
4732 2 28.79867 55.32502 23.916813
4733 2 28.79867 55.32502 36.697021
4734 2 28.79867 55.32502 49.478004
4735 2 36.613351 54.266471 26.793504
4736 2 36.613351 54.266471 39.574488
4737 2 36.613351 54.266471 52.354695
4738 2 35.048003 53.438452 26.749272
4739 2 35.048003 53.438452 39.530255
4740 2 35.048003 53.438452 52.310463
4741 2 34.333016 54.646058 28.698624
4742 2 34.333016 54.646058 41.479607
4743 2 34.333016 54.646058 54.260591
4744 2 37.167681 55.491761 28.786314
4745 2 37.167681 55.491761 41.567297
4746 2 37.167681 55.491761 54.347505
4747 2 35.856741 55.803768 29.899896
4748 2 35.856741 55.803768 42.680104
4749 2 35.856741 55.803768 55.461088
4750 2 35.573935 56.660208 21.482451
4751 2 35.573935 56.660208 34.262658
4752 2 35.573935 56.660208 47.043642
4753 2 34.143182 53.399293 21.866579
4754 2 34.143182 53.399293 34.646786
4755 2 34.143182 53.399293 47.42777
4756 2 36.440634 53.81804 21.999278
4757 2 36.440634 53.81804 34.779485
4758 2 36.440634 53.81804 47.560469
4759 2 33.735896 54.878484 21.250422
4760 2 33.735896 54.878484 34.03063
4761 2 33.735896 54.878484 46.811613
4762 2 37.038143 56.065247 21.9403
4763 2 37.038143 56.065247 34.721284
4764 2 37.038143 56.065247 47.501491
4765 2 29.337439 59.36911 29.210794
4766 2 29.337439 59.36911 41.991002
4767 2 29.337439 59.36911 54.771985
4768 2 30.255486 60.716298 29.095944
4769 2 30.255486 60.716298 41.876927
4770 2 30.255486 60.716298 54.657911
4771 2 29.320712 62.353387 27.152024
4772 2 29.320712 62.353387 39.933007
4773 2 29.320712 62.353387 52.713991
4774 2 27.848336 59.833331 27.789909
4775 2 27.848336 59.833331 40.570116
4776 2 27.848336 59.833331 53.3511
4777 2 27.856505 61.54558 26.430329
4778 2 27.856505 61.54558 39.211312
4779 2 27.856505 61.54558 51.992296
4780 2 28.20155 60.38408 23.408523
4781 2 28.20155 60.38408 36.189506
4782 2 28.20155 60.38408 48.97049
4783 2 28.61545 62.110856 23.402315
4784 2 28.61545 62.110856 36.182522
4785 2 28.61545 62.110856 48.963506
4786 2 29.581733 62.783502 21.300863
4787 2 29.581733 62.783502 34.081847
4788 2 29.581733 62.783502 46.86283
4789 2 28.848073 59.94007 21.282239
4790 2 28.848073 59.94007 34.062446
4791 2 28.848073 59.94007 46.84343
4792 2 29.757173 61.548738 20.00026
4793 2 29.757173 61.548738 32.780468
4794 2 29.757173 61.548738 45.561451
4795 2 37.692446 61.78369 28.716472
4796 2 37.692446 61.78369 41.497456
4797 2 37.692446 61.78369 54.278439
4798 2 37.145507 60.757983 30.079156
4799 2 37.145507 60.757983 42.86014
4800 2 37.145507 60.757983 55.641123
4801 2 34.172747 60.103021 27.95132
4802 2 34.172747 60.103021 40.731528
4803 2 34.172747 60.103021 53.512511
4804 2 34.703736 59.998177 29.688044
4805 2 34.703736 59.998177 42.469028
4806 2 34.703736 59.998177 55.250011
4807 2 36.150827 61.044095 27.270754
4808 2 36.150827 61.044095 40.051738
4809 2 36.150827 61.044095 52.831945
4810 2 37.603364 61.527264 20.84379
4811 2 37.603364 61.527264 33.624773
4812 2 37.603364 61.527264 46.405757
4813 2 34.065771 61.109149 22.669755
4814 2 34.065771 61.109149 35.450739
4815 2 34.065771 61.109149 48.231722
4816 2 37.720065 60.626612 22.372541
4817 2 37.720065 60.626612 35.153525
4818 2 37.720065 60.626612 47.934508
4819 2 35.294242 60.05502 23.292896
4820 2 35.294242 60.05502 36.07388
4821 2 35.294242 60.05502 48.854087
4822 2 35.310191 61.504526 20.728939
4823 2 35.310191 61.504526 33.509923
4824 2 35.310191 61.504526 46.290906
4825 6 32.206336 51.501356 31.317678
4826 6 32.206336 51.501356 44.098661
4827 6 32.206336 51.501356 56.878869
4828 6 32.4977 51.342827 25.020308
4829 6 32.4977 51.342827 37.801291
4830 6 32.4977 51.342827 50.582275
4831 6 38.824833 51.741993 31.590835
4832 6 38.824833 51.741993 44.371819
4833 6 38.824833 51.741993 57.152802
4834 6 38.639279 51.927682 24.837944
4835 6 38.639279 51.927682 37.618928
4836 6 38.639279 51.927682 50.399911
4837 6 26.237085 58.042134 25.23216
4838 6 26.237085 58.042134 38.013144
4839 6 26.237085 58.042134 50.794127
4840 6 25.951946 57.92971 31.638948
4841 6 25.951946 57.92971 44.419932
4842 6 25.951946 57.92971 57.200915
4843 6 32.685977 57.537491 25.178615
4844 6 32.685977 57.537491 37.959599
4845 6 32.685977 57.537491 50.740582
4846 6 32.589115 57.84634 31.562123
4847 6 32.589115 57.84634 44.343106
4848 6 32.589115 57.84634 57.12409
4849 3 28.961273 52.016105 31.4496
4850 3 28.961273 52.016105 44.229808
4851 3 28.961273 52.016105 57.010791
4852 3 31.979548 51.36809 28.388993
4853 3 31.979548 51.36809 41.169977
4854 3 31.979548 51.36809 53.95096
4855 3 32.455298 54.452159 25.023412
4856 3 32.455298 54.452159 37.804395
4857 3 32.455298 54.452159 50.585379
4858 3 28.956994 51.806416 25.031948
4859 3 28.956994 51.806416 37.812156
4860 3 28.956994 51.806416 50.593139
4861 3 32.181829 51.679466 21.872787
4862 3 32.181829 51.679466 34.652994
4863 3 32.181829 51.679466 47.433978
4864 3 38.648226 51.75652 27.942784
4865 3 38.648226 51.75652 40.722992
4866 3 38.648226 51.75652 53.503975
4867 3 32.647855 54.546898 31.453481
4868 3 32.647855 54.546898 44.234464
4869 3 32.647855 54.546898 57.014672
4870 3 35.690247 51.258193 31.101945
4871 3 35.690247 51.258193 43.882929
4872 3 35.690247 51.258193 56.663912
4873 3 38.285675 51.520936 21.799065
4874 3 38.285675 51.520936 34.580049
4875 3 38.285675 51.520936 47.360256
4876 3 38.530747 54.871537 25.13283
4877 3 38.530747 54.871537 37.913814
4878 3 38.530747 54.871537 50.694797
4879 3 38.790601 54.767324 32.040149
4880 3 38.790601 54.767324 44.821132
4881 3 38.790601 54.767324 57.60134
4882 3 35.557986 51.487461 24.920978
4883 3 35.557986 51.487461 37.701185
4884 3 35.557986 51.487461 50.482169
4885 3 29.261195 57.084639 25.951527
4886 3 29.261195 57.084639 38.732511
4887 3 29.261195 57.084639 51.513494
4888 3 26.05192 57.644862 28.488323
4889 3 26.05192 57.644862 41.269307
4890 3 26.05192 57.644862 54.049514
4891 3 32.307477 57.416225 28.545749
4892 3 32.307477 57.416225 41.326732
4893 3 32.307477 57.416225 54.10694
4894 3 26.339782 61.058622 31.879513
4895 3 26.339782 61.058622 44.659721
4896 3 26.339782 61.058622 57.440704
4897 3 29.182616 57.470542 31.680077
4898 3 29.182616 57.470542 44.461061
4899 3 29.182616 57.470542 57.242044
4900 3 32.325371 57.803391 22.093176
4901 3 32.325371 57.803391 34.874159
4902 3 32.325371 57.803391 47.655143
4903 3 26.401245 57.970764 22.078431
4904 3 26.401245 57.970764 34.858639
4905 3 26.401245 57.970764 47.639622
4906 3 32.493421 60.656929 25.381155
4907 3 32.493421 60.656929 38.162139
4908 3 32.493421 60.656929 50.943122
4909 3 32.568109 60.755457 31.015031
4910 3 32.568109 60.755457 43.796015
4911 3 32.568109 60.755457 56.576222
4912 3 35.992503 57.924026 24.650148
4913 3 35.992503 57.924026 37.431132
4914 3 35.992503 57.924026 50.212115
4915 3 38.636945 60.944303 25.102566
4916 3 38.636945 60.944303 37.883549
4917 3 38.636945 60.944303 50.664533
4918 3 35.641233 58.071187 31.704134
4919 3 35.641233 58.071187 44.484341
4920 3 35.641233 58.071187 57.265325
