# LAMMPS data file written by OVITO Basic 3.10.6

14184 atoms
6 atom types

0.0 38.9003 xlo xhi
0.0 63.1593 ylo yhi
0.0 77.6016 zlo zhi

Atom Type Labels

1 C
2 H
3 I
4 N
5 O
6 Pb

Masses

1 12.0107  # C
2 1.00794  # H
3 126.90447  # I
4 14.0067  # N
5 15.9994  # O
6 207.2  # Pb

Atoms  # atomic

1 2 13.423412 39.610079 3.577042
2 2 11.90259 39.65391 4.122089
3 5 12.730053 40.208742 3.943223
4 2 15.786401 13.522407 7.945323
5 2 16.317943 11.999745 7.841115
6 5 16.60038 12.97154 7.860382
7 2 23.40557 61.679164 2.678936
8 2 22.740761 60.26487 2.266992
9 5 22.819461 60.95494 3.003292
10 2 12.792065 52.714953 6.590247
11 2 12.799057 52.838945 4.978889
12 5 13.378641 52.850052 5.80864
13 2 11.266473 39.097079 12.536001
14 2 11.187418 38.628687 10.991251
15 5 10.756488 38.538473 11.902672
16 2 16.846701 23.32598 7.352392
17 2 17.545285 23.635082 5.928196
18 5 16.758175 23.186681 6.379772
19 2 12.462254 22.520796 6.995163
20 2 13.267621 22.096938 8.330687
21 5 12.47979 22.624298 7.976086
22 2 32.95273 3.887095 11.032042
23 2 33.362684 2.452349 11.652798
24 5 33.688513 3.391889 11.464042
25 2 31.730134 12.376342 7.378917
26 2 31.403019 12.807759 5.856166
27 5 31.960291 12.194149 6.437077
28 2 12.496128 38.045611 5.490995
29 2 13.620404 39.193974 5.661768
30 5 12.810466 38.763682 6.089992
31 2 24.665954 56.036745 8.217545
32 2 24.239035 55.784104 9.755663
33 5 24.554529 55.337115 8.904082
34 2 11.108361 15.870847 6.03362
35 2 10.603939 15.746322 4.503278
36 5 10.401265 16.154697 5.406982
37 2 10.870775 51.401301 6.733503
38 2 10.98917 52.33678 8.046041
39 5 10.51266 51.540322 7.64216
40 2 9.218976 24.380497 3.676344
41 2 8.753263 24.511957 5.218331
42 5 8.547958 24.071767 4.330294
43 2 17.400042 7.991689 8.915266
44 2 17.403343 8.852389 10.283141
45 5 16.82388 8.50624 9.528867
46 2 1.002707 27.449835 7.742069
47 2 1.003339 28.054125 6.24316
48 5 1.570482 27.888553 7.065025
49 2 9.167484 34.893769 16.074493
50 2 9.098776 35.118282 14.475503
51 5 9.691768 35.189091 15.292738
52 2 1.043048 45.070184 15.403191
53 2 1.443223 46.575689 14.97283
54 5 1.00047 45.720104 14.662231
55 2 13.085107 46.997442 13.37305
56 2 12.743579 46.830466 14.943837
57 5 12.752602 46.359385 14.047998
58 2 18.303985 53.398537 3.677094
59 2 16.717222 53.098252 3.614591
60 5 17.633614 52.739623 3.377654
61 2 15.134095 41.881287 10.868183
62 2 14.766584 42.296281 9.350089
63 5 15.369612 42.500291 10.137022
64 2 29.305462 26.331975 8.872133
65 2 28.842065 27.295684 7.660348
66 5 28.518523 26.64926 8.368856
67 2 3.21307 44.550645 2.120263
68 2 4.28481 44.119766 0.989948
69 5 3.406987 44.596233 1.15406
70 2 26.017181 15.431283 6.984905
71 2 26.013927 16.126379 5.52589
72 5 25.460594 15.596386 6.187295
73 2 13.334943 35.077976 18.752163
74 2 13.908744 35.491243 17.298939
75 5 14.055166 35.575262 18.296952
76 2 26.331092 45.603973 6.46062
77 2 24.805274 45.180477 6.137468
78 5 25.391221 45.882541 6.571405
79 2 2.632599 18.280326 3.731557
80 2 2.81986 17.731452 5.240055
81 5 3.236608 18.297033 4.51138
82 2 10.480498 32.151018 1.828926
83 2 10.812809 33.672199 2.261907
84 5 11.082735 32.703962 2.381008
85 2 34.638581 1.235711 8.334217
86 2 35.322173 2.53833 7.665054
87 5 34.470839 1.994253 7.726181
88 2 31.769954 36.865903 3.005025
89 2 30.894704 37.142788 1.674924
90 5 31.663467 36.607854 2.058821
91 2 32.618567 57.825271 11.881542
92 2 31.012492 57.998632 11.832927
93 5 31.76649 57.330645 11.93195
94 2 3.071821 57.660231 2.708895
95 2 2.545577 57.183263 4.160606
96 5 2.359485 57.153517 3.166115
97 2 3.245813 58.018702 12.957516
98 2 4.02921 57.863365 14.362527
99 5 3.259348 58.325267 13.895101
100 2 13.045399 15.805337 4.992552
101 2 12.795453 15.160014 3.532079
102 5 13.433435 15.200271 4.316863
103 2 11.010764 36.907876 17.081589
104 2 12.227349 36.463571 16.11494
105 5 11.272386 36.262074 16.383217
106 2 9.450725 30.090916 15.412708
107 2 8.373884 30.448959 16.56341
108 5 9.326087 30.153085 16.389351
109 2 14.456964 31.370934 5.052039
110 2 14.784326 30.844724 3.559446
111 5 14.328587 30.613486 4.43315
112 2 6.466952 35.059056 13.346768
113 2 6.90688 35.075428 14.901789
114 5 6.566153 35.64273 14.135891
115 2 26.33147 9.398367 10.415772
116 2 27.600593 9.963822 11.241292
117 5 26.93045 9.208046 11.176188
118 2 1.957529 37.983748 10.136574
119 2 3.175121 37.796181 9.090543
120 5 2.337761 37.368675 9.465501
121 2 6.343621 4.79617 3.999581
122 2 5.094806 3.825925 4.332718
123 5 5.367131 4.781381 4.139146
124 2 4.575363 54.163435 10.177957
125 2 3.300662 53.525541 9.4163
126 5 3.672355 53.792156 10.319233
127 2 28.749681 8.477649 9.268908
128 2 27.713581 9.166796 8.237661
129 5 28.125124 9.233492 9.160001
130 2 37.893311 21.446174 13.780253
131 2 37.892149 22.096414 15.259808
132 5 37.7713 22.291503 14.273976
133 2 19.772623 31.916138 9.448538
134 2 18.883635 30.624405 9.057359
135 5 18.891641 31.635462 9.104558
136 2 28.102168 35.194341 0.99924
137 2 27.476739 35.419365 2.472365
138 5 27.415194 34.866459 1.626768
139 2 29.961516 2.873252 10.445183
140 2 28.534543 3.335667 11.046694
141 5 29.506659 3.164439 11.270741
142 2 17.348276 33.024945 9.81333
143 2 16.84147 32.251181 8.488063
144 5 17.071816 33.157408 8.875644
145 2 32.184807 45.483705 14.266837
146 2 33.514859 46.390794 14.408422
147 5 32.504576 46.394494 14.470408
148 2 21.057852 59.046851 5.210761
149 2 21.959325 58.582431 6.469155
150 5 21.767836 59.342436 5.828647
151 2 21.3118 22.275773 16.175621
152 2 22.321974 22.895241 15.076666
153 5 22.127002 22.820658 16.067095
154 2 25.988506 44.873441 16.333826
155 2 26.254346 45.340691 17.857933
156 5 25.826336 45.602148 16.978743
157 2 29.056505 4.470196 9.236568
158 2 27.851257 5.297027 9.926223
159 5 28.079077 4.60337 9.225177
160 2 25.540641 5.965303 3.530778
161 2 26.828145 6.731469 4.136764
162 5 25.824116 6.775869 4.016428
163 2 8.817354 52.297906 14.520266
164 2 9.61619 51.738128 13.231699
165 5 9.305973 52.574928 13.709254
166 2 19.180846 29.351192 7.302805
167 2 17.946785 28.375064 6.933801
168 5 18.672412 28.96706 6.5497
169 2 15.561068 29.039251 7.533946
170 2 15.625144 30.417732 6.692769
171 5 15.943081 29.948806 7.531549
172 2 30.20307 43.371748 6.4345
173 2 29.099587 43.558041 7.600484
174 5 29.233676 43.359197 6.617118
175 2 8.263129 45.875509 1.639162
176 2 9.561659 45.070193 2.165641
177 5 9.125592 45.490305 1.354545
178 2 6.202327 29.827462 5.199894
179 2 5.105236 29.646748 4.027022
180 5 5.266997 30.021347 4.953324
181 2 24.085107 24.929766 13.910676
182 2 22.502759 24.649059 13.739579
183 5 23.2492 24.775596 14.411398
184 2 19.42711 50.070806 3.954143
185 2 19.969127 49.982335 2.434181
186 5 19.9256 50.564821 3.260827
187 2 12.95964 29.870556 5.960074
188 2 12.031111 28.555665 5.815877
189 5 12.478601 29.308087 5.3078
190 2 22.310491 42.273709 12.083377
191 2 23.910939 42.080865 11.968181
192 5 23.162272 42.419504 12.559237
193 2 6.482506 19.30491 4.771419
194 2 5.080538 19.36546 3.969724
195 5 5.504338 19.236619 4.879845
196 2 30.322579 19.441545 10.082947
197 2 31.257133 18.160619 9.770322
198 5 30.640128 18.850159 9.359997
199 2 5.585602 46.654266 5.421455
200 2 4.578631 47.427539 6.421431
201 5 5.114684 47.508883 5.566705
202 2 24.751161 12.824949 14.545562
203 2 24.486032 12.980865 16.13216
204 5 25.067422 13.282376 15.360406
205 2 17.676202 59.460121 4.523961
206 2 17.653114 59.300806 2.915863
207 5 17.082704 59.463996 3.735941
208 2 37.205472 10.468179 8.727858
209 2 37.260035 10.523683 10.342119
210 5 37.806176 10.620538 9.495434
211 2 24.792987 33.297598 12.366171
212 2 24.778163 34.878845 12.699837
213 5 24.840736 34.194042 11.957101
214 2 10.986828 55.156038 12.377698
215 2 9.470646 54.670573 12.655925
216 5 10.118682 54.981022 11.943045
217 2 37.021891 41.439984 9.156303
218 2 37.112378 42.333622 10.49985
219 5 36.60837 42.198568 9.632518
220 2 31.997929 30.774989 14.2732
221 2 33.377935 31.23069 13.566225
222 5 32.373944 31.359087 13.572719
223 2 10.240805 15.399242 1.996108
224 2 9.012016 15.971575 1.116103
225 5 9.450071 15.13085 1.470812
226 2 8.065969 23.342509 12.992931
227 2 7.062052 24.590637 12.777944
228 5 7.38483 23.715635 12.384608
229 2 16.727626 17.23477 2.355475
230 2 16.229156 16.507185 1.001207
231 5 15.965685 17.153694 1.734103
232 2 1.363385 14.787319 2.84238
233 2 1.658784 14.927844 4.425063
234 5 1.478381 15.441532 3.571772
235 2 18.109575 23.478219 9.1413
236 2 19.284329 22.639301 9.867983
237 5 19.082106 23.312651 9.139812
238 2 34.348713 29.587302 5.241073
239 2 33.801854 29.354044 6.743881
240 5 33.853968 30.015425 5.979429
241 2 2.710561 36.878414 12.258499
242 2 2.909804 38.477562 12.38066
243 5 2.768505 37.622527 12.90361
244 2 28.754539 21.55113 13.401047
245 2 28.413472 21.208645 14.943212
246 5 28.730709 20.820744 14.063768
247 2 12.06761 43.994246 5.55617
248 2 12.863431 45.169126 6.329618
249 5 12.048892 44.56891 6.357819
250 2 37.828904 25.092635 4.96695
251 2 37.900637 26.157155 3.753054
252 5 37.277006 25.617917 4.340279
253 2 6.075309 8.726486 13.099772
254 2 6.402304 7.447846 12.167007
255 5 5.67203 7.934715 12.671174
256 2 17.056739 56.634698 2.908373
257 2 17.205403 56.318791 4.486345
258 5 17.617633 56.170276 3.573911
259 2 35.361989 27.353276 3.697649
260 2 35.744987 28.460089 2.584018
261 5 35.603313 28.301759 3.573658
262 2 34.677632 47.951221 11.294857
263 2 33.692202 46.884517 12.004059
264 5 34.124179 47.151685 11.128534
265 2 13.564983 23.424974 15.227657
266 2 14.385015 23.75324 16.581054
267 5 13.509823 23.403019 16.212394
268 2 3.693996 27.646435 9.892511
269 2 3.990316 27.557102 11.478736
270 5 4.379698 27.816323 10.58112
271 2 23.003626 14.634816 5.025924
272 2 22.715195 14.216677 3.491693
273 5 22.285046 14.41957 4.385188
274 2 6.134331 41.679534 1.00462
275 2 7.62572 41.056918 1.002333
276 5 6.985116 41.659312 1.503607
277 2 8.651484 49.454275 13.706703
278 2 9.679524 48.221741 13.517252
279 5 9.585749 49.229025 13.483897
280 2 8.657371 33.263138 2.400468
281 2 9.31595 32.521181 3.676271
282 5 8.617157 32.443574 2.948127
283 2 34.425906 49.378001 2.658766
284 2 34.651808 48.760613 4.135146
285 5 33.955974 49.005013 3.441885
286 2 9.127019 18.85072 12.900723
287 2 9.272685 19.221845 11.334536
288 5 8.621454 18.9472 12.059102
289 2 31.041282 45.11068 16.110182
290 2 29.670418 45.591199 16.81851
291 5 30.480801 45.900741 16.296984
292 2 33.454389 37.83731 6.351493
293 2 34.881915 38.093414 7.064567
294 5 34.429229 37.822019 6.200884
295 2 35.839519 14.189723 7.942897
296 2 36.255541 13.694862 9.424091
297 5 36.609731 13.950308 8.510951
298 2 25.896204 22.581589 1.262972
299 2 27.329331 23.322824 1.170161
300 5 26.714141 22.791291 1.773105
301 2 18.589485 56.829407 11.936082
302 2 20.15216 57.192599 11.74106
303 5 19.25456 57.550205 12.042652
304 2 32.630203 22.293172 8.072966
305 2 32.360254 23.510087 9.101626
306 5 33.022675 22.796397 8.825269
307 2 33.027685 53.808874 11.925805
308 2 34.148649 52.883448 12.63215
309 5 33.17391 52.937588 12.364792
310 2 27.131371 28.321001 1.432702
311 2 26.478286 26.868233 1.159136
312 5 26.383854 27.86047 0.982857
313 2 1.001571 6.096713 12.786855
314 2 2.357595 6.508652 13.563642
315 5 1.985949 6.050398 12.741201
316 2 34.511792 21.713901 7.089377
317 2 34.676768 21.138353 8.590518
318 5 35.113592 21.201374 7.679617
319 2 36.254893 6.958606 2.09351
320 2 37.128995 6.017461 1.11265
321 5 36.346642 6.658055 1.158373
322 2 18.523843 31.502127 11.905133
323 2 19.607868 30.556214 11.168904
324 5 18.825966 30.567676 11.811574
325 2 13.800672 35.262505 8.541452
326 2 13.021453 35.416181 9.948967
327 5 13.872848 35.089199 9.509949
328 2 13.664832 44.585289 4.156263
329 2 13.660794 46.116193 3.638371
330 5 13.891416 45.50983 4.415329
331 2 8.573027 20.555737 6.517877
332 2 8.796494 20.480194 4.919048
333 5 8.690899 19.931555 5.76307
334 2 19.080444 3.071702 14.105091
335 2 17.806859 2.242956 14.655597
336 5 18.206068 3.167287 14.551814
337 2 21.543361 57.240681 1.000063
338 2 21.930058 58.220062 2.226103
339 5 21.600648 58.187952 1.269554
340 2 11.829776 36.586251 7.235369
341 2 13.284552 37.209666 7.562289
342 5 12.790516 36.508124 7.025357
343 2 24.739006 2.919083 4.967215
344 2 23.607953 4.017056 4.610746
345 5 24.544795 3.699639 4.396036
346 2 25.882401 62.156612 7.862402
347 2 25.289511 62.09573 9.364624
348 5 25.297087 61.636598 8.462588
349 2 32.030036 22.428938 17.549636
350 2 31.471687 20.989461 17.072093
351 5 31.254622 21.821644 17.605836
352 2 21.798976 17.860639 10.25356
353 2 21.312227 19.32932 9.786714
354 5 21.07627 18.524655 10.353605
355 2 28.250256 1.509701 15.100538
356 2 29.729959 2.130622 15.292451
357 5 28.766155 2.189043 15.596091
358 2 19.568664 32.2139 1.002709
359 2 19.682599 33.41129 2.08214
360 5 19.956507 33.107917 1.156145
361 2 32.865107 21.306591 2.967629
362 2 32.89317 22.268486 4.266038
363 5 32.912798 22.249365 3.254219
364 2 17.938778 11.380739 13.295321
365 2 18.99043 10.329315 12.662524
366 5 18.53757 10.628666 13.516827
367 2 3.075519 35.975921 7.488896
368 2 3.691407 35.988631 5.994769
369 5 3.799599 36.35097 6.933668
370 2 6.186996 30.730539 7.201567
371 2 5.233237 31.807429 7.938146
372 5 5.930435 31.088363 8.084386
373 2 30.285859 15.02435 2.957978
374 2 30.907039 15.230726 1.480331
375 5 30.759652 14.562542 2.226209
376 2 23.316692 2.523121 17.803255
377 2 22.454983 3.659021 17.042278
378 5 22.758632 3.323696 17.947752
379 2 11.833486 13.389375 10.229434
380 2 12.206669 13.614344 11.785718
381 5 12.471301 13.131396 10.936448
382 2 29.146219 58.492614 3.50585
383 2 28.486417 58.151446 2.070524
384 5 28.712652 58.896583 2.717143
385 2 5.927009 17.411866 14.431399
386 2 6.027629 15.887946 14.96002
387 5 6.385924 16.55104 14.284404
388 2 26.40317 37.663116 6.758478
389 2 26.332941 37.168015 8.295305
390 5 26.956112 37.413099 7.53628
391 2 28.987689 3.116471 7.51565
392 2 27.867124 2.134844 6.889043
393 5 28.024936 2.901724 7.530539
394 2 26.700157 27.470574 16.602548
395 2 26.81689 28.930157 17.28657
396 5 26.989468 27.9417 17.419598
397 2 32.651675 19.839736 10.096889
398 2 33.011522 19.698508 8.527666
399 5 33.131038 19.279649 9.441341
400 2 9.083948 53.647799 5.532405
401 2 8.458838 52.157602 5.553552
402 5 9.317016 52.690248 5.487625
403 2 18.697283 9.638839 8.263563
404 2 18.560217 9.913724 6.676885
405 5 18.123574 10.057234 7.578703
406 2 2.302918 48.327701 17.341614
407 2 2.636253 48.244747 15.762405
408 5 2.671585 47.740843 16.639536
409 2 23.931108 9.002321 2.912864
410 2 24.016933 8.727518 4.503151
411 5 24.49924 8.615179 3.620379
412 2 7.726779 4.940162 5.739925
413 2 7.474323 3.626606 6.646972
414 5 7.082264 4.511871 6.351806
415 2 11.59032 52.04591 11.629079
416 2 12.369483 53.225905 12.411647
417 5 12.025778 52.922955 11.509086
418 2 7.803021 10.152799 1.372486
419 2 8.531957 9.475737 2.646116
420 5 8.680108 9.873093 1.727047
421 2 4.956285 32.03033 5.767177
422 2 4.582746 33.527157 6.24871
423 5 5.108391 32.985744 5.574101
424 2 36.672215 2.909582 1.040576
425 2 37.899617 3.96017 1.000028
426 5 37.364203 3.341205 1.59563
427 2 28.065444 16.23888 4.102942
428 2 27.537422 15.231995 2.954346
429 5 27.35463 15.591166 3.882845
430 2 29.381551 30.236024 8.677769
431 2 28.934798 29.491671 10.040944
432 5 28.894185 29.454072 9.030269
433 2 18.931838 4.022168 4.180108
434 2 18.153115 2.616371 4.009165
435 5 19.061387 3.045268 4.134133
436 2 11.213919 3.165121 16.413463
437 2 10.757106 3.073901 17.961008
438 5 11.482879 2.826651 17.300215
439 2 18.059791 61.826393 13.689758
440 2 19.022545 60.549566 13.455845
441 5 18.226193 61.058412 13.093313
442 2 4.353165 3.161299 11.927395
443 2 3.237958 3.801173 10.948228
444 5 4.187746 3.455169 11.000299
445 2 23.298971 19.53835 17.194325
446 2 24.408648 18.386567 16.962142
447 5 24.087642 19.105092 17.598698
448 2 35.403039 25.77336 1.009382
449 2 36.195518 25.770029 2.417879
450 5 35.380032 25.420816 1.930476
451 2 13.465637 45.110389 9.53693
452 2 14.776071 44.441707 8.867958
453 5 14.427573 44.941528 9.676201
454 2 20.695525 53.436164 2.453792
455 2 21.277994 54.079118 3.81733
456 5 21.167663 53.220541 3.292734
457 2 24.279904 58.08385 5.267565
458 2 23.137579 58.629686 4.263049
459 5 23.933898 58.896465 4.828056
460 2 28.384623 52.672137 16.848913
461 2 29.159046 53.525474 15.715784
462 5 29.219761 52.720171 16.325971
463 2 10.527067 5.755902 16.355275
464 2 9.159125 5.019466 16.800572
465 5 9.555017 5.886931 16.461015
466 2 21.471917 26.525067 2.073707
467 2 21.773529 27.698633 1.004282
468 5 21.724931 26.696183 1.135659
469 2 30.320789 11.090663 15.214274
470 2 29.957317 10.413206 13.792713
471 5 29.837129 11.237894 14.367145
472 2 26.4436 49.035478 10.351098
473 2 24.934546 48.986933 10.927548
474 5 25.745959 48.428448 10.694672
475 2 1.000775 56.886612 8.394443
476 2 2.57827 56.618215 8.167794
477 5 1.763454 56.34074 8.700344
478 2 1.835933 53.531707 7.771071
479 2 1.055257 54.385027 6.642228
480 5 1.965023 54.17096 7.030853
481 2 31.726508 11.624781 13.307128
482 2 32.47561 11.186671 14.670507
483 5 32.60804 11.581259 13.747853
484 2 14.344888 22.182422 3.169639
485 2 14.241468 22.473811 4.755922
486 5 14.287464 21.746967 4.052992
487 2 28.743244 14.395393 1.018748
488 2 27.129938 14.299911 1.014087
489 5 27.987177 13.761702 1.013397
490 2 18.280626 43.396585 2.536217
491 2 18.691972 43.689597 1.001019
492 5 19.049872 43.478873 1.924074
493 2 14.133376 37.510635 16.454909
494 2 14.111427 37.89274 14.884747
495 5 14.697737 37.818107 15.706451
496 2 35.600238 30.160407 11.567831
497 2 35.301106 30.42407 10.001658
498 5 35.579912 30.859341 10.871908
499 2 4.775355 5.669593 6.866937
500 2 3.743863 6.621903 7.667578
501 5 4.369847 6.568895 6.873939
502 2 13.273385 19.423651 6.717149
503 2 14.312375 18.866713 5.611611
504 5 13.998639 18.771459 6.569224
505 2 17.202437 18.597502 12.409067
506 2 17.833432 18.735722 10.927637
507 5 17.983385 18.359487 11.855262
508 2 33.029179 32.970365 11.867254
509 2 32.662675 33.020739 10.29403
510 5 33.276918 32.60718 10.984104
511 2 21.639763 16.340324 5.367061
512 2 21.046902 17.228626 4.154077
513 5 21.653462 17.240784 4.964302
514 2 5.720583 29.94942 15.808051
515 2 6.040449 30.458297 14.307842
516 5 6.107391 29.673449 14.943499
517 2 26.119467 17.665627 2.020819
518 2 25.829095 17.131416 3.518216
519 5 26.108351 16.856416 2.584986
520 2 11.613107 39.707003 9.105099
521 2 13.062465 40.326075 9.462878
522 5 12.517287 39.474154 9.423642
523 2 16.754667 24.282049 3.982608
524 2 15.139419 24.324316 3.949689
525 5 15.94456 23.988367 4.462928
526 2 3.301071 36.168897 3.838914
527 2 3.799623 35.436894 2.487059
528 5 3.552033 35.29414 3.458062
529 2 17.757904 49.976696 5.950393
530 2 18.768754 50.800763 6.904852
531 5 18.624159 50.448456 5.967036
532 2 3.292728 50.524822 6.326138
533 2 1.841056 51.08331 6.765041
534 5 2.765648 51.349395 6.450626
535 2 36.822713 55.66645 11.082172
536 2 35.822333 56.707816 11.807908
537 5 35.892857 55.789616 11.387834
538 2 36.706909 33.341028 16.334275
539 2 36.213671 32.920567 14.853794
540 5 36.343766 32.593444 15.80279
541 2 6.551875 38.475335 10.205692
542 2 6.975595 39.949852 9.697599
543 5 6.641239 39.415833 10.489785
544 2 7.45383 43.870048 14.007793
545 2 7.545975 44.213395 15.584346
546 5 6.939038 43.87291 14.849346
547 2 21.730619 10.725741 16.52923
548 2 22.904057 10.380348 15.47299
549 5 22.136837 9.993332 16.007891
550 2 6.563898 55.813171 17.424717
551 2 6.254672 56.005959 18.999236
552 5 5.883105 55.662477 18.122603
553 2 14.121798 34.499907 11.620757
554 2 14.977287 33.735049 12.758749
555 5 14.973415 34.518903 12.11837
556 2 15.034369 8.810295 14.488124
557 2 13.70357 9.380012 15.206658
558 5 14.65822 9.08021 15.359266
559 2 20.223334 51.412519 8.786062
560 2 19.534799 52.63055 7.977226
561 5 19.591893 52.165326 8.874351
562 2 11.430937 2.783283 9.407795
563 2 11.4391 3.127061 7.828667
564 5 12.022854 2.951103 8.636626
565 2 14.124273 13.088553 9.481558
566 2 14.441103 12.055587 10.683429
567 5 14.386629 12.158045 9.677913
568 2 26.268582 54.100694 4.207463
569 2 26.286 54.032601 2.592856
570 5 25.86932 53.64403 3.429466
571 2 22.700081 2.88795 11.356736
572 2 21.751216 3.72461 12.362495
573 5 22.453692 3.800937 11.637768
574 2 10.045412 53.08923 10.467293
575 2 8.619267 52.71349 11.12822
576 5 9.588509 52.927428 11.326532
577 2 19.45456 7.223062 13.058816
578 2 18.664419 8.446349 13.759631
579 5 19.161727 8.155892 12.927257
580 2 19.685511 26.034894 16.074197
581 2 20.119754 25.308084 14.697579
582 5 19.639058 25.182653 15.579467
583 2 21.118647 5.933684 14.261142
584 2 20.932802 7.472808 14.717712
585 5 21.383078 6.86024 14.049476
586 2 24.663631 14.952035 2.725666
587 2 25.062229 14.598541 4.251463
588 5 24.628207 15.289154 3.652126
589 2 20.71649 13.505045 6.780215
590 2 21.453089 14.920457 7.036974
591 5 20.718734 14.456023 6.517792
592 2 35.530908 10.468046 6.549512
593 2 35.96352 10.819566 5.03255
594 5 36.237026 10.329186 5.874719
595 2 26.051026 26.193181 11.203299
596 2 25.790491 25.545211 12.660746
597 5 25.415307 25.649701 11.726484
598 2 15.137145 34.09375 15.195464
599 2 13.62657 34.661887 15.28078
600 5 14.594882 34.915283 15.13015
601 2 31.229872 28.604389 1.778972
602 2 31.2544 27.037445 2.173916
603 5 31.381381 27.977944 2.52586
604 2 1.855852 41.531121 1.979866
605 2 2.926343 42.142307 3.025044
606 5 2.069821 42.329066 2.519061
607 2 13.248287 62.158372 12.795781
608 2 13.369343 60.880208 11.814182
609 5 13.281352 61.172541 12.779234
610 2 14.911813 32.493714 6.886729
611 2 13.428686 31.853473 6.934893
612 5 13.973609 32.685216 7.124072
613 2 13.831621 48.86703 7.427846
614 2 15.310491 48.220367 7.509489
615 5 14.624772 48.774183 8.007088
616 2 4.718037 6.034498 12.105708
617 2 4.428668 5.773716 13.674196
618 5 4.52225 5.330844 12.76886
619 2 14.037392 3.225987 12.623645
620 2 13.695387 3.577247 11.083663
621 5 14.103702 3.932971 11.938804
622 2 18.810825 27.520894 1.005129
623 2 19.851454 28.699672 1.378586
624 5 19.633139 27.720394 1.512308
625 2 6.918314 28.020498 7.93592
626 2 7.950801 27.086272 7.115501
627 5 7.101023 27.089547 7.665404
628 2 23.4413 5.941067 12.25605
629 2 23.021236 5.082366 13.559152
630 5 23.801371 5.474709 13.047309
631 2 16.466584 12.789794 11.622875
632 2 16.341928 13.32231 13.143659
633 5 15.847802 12.865668 12.387455
634 2 10.240001 58.700834 9.778195
635 2 9.940219 58.743624 11.365708
636 5 10.274002 58.164591 10.605551
637 2 17.214704 36.997252 15.356763
638 2 16.889151 38.402021 16.086514
639 5 17.273392 37.474871 16.217964
640 2 4.531349 21.382001 12.810791
641 2 5.465218 22.698815 12.734725
642 5 4.735503 22.235519 13.261413
643 2 7.472274 51.531692 12.773336
644 2 6.651843 50.347672 13.50606
645 5 7.097036 51.246766 13.640079
646 2 19.863144 10.452391 1.723692
647 2 18.769109 9.495189 1.017471
648 5 19.73473 9.797964 0.996735
649 2 3.412457 25.090208 6.733749
650 2 3.037623 26.360654 7.659686
651 5 2.996311 25.351774 7.589106
652 2 10.573108 19.796724 2.8349
653 2 11.379181 19.42835 1.483441
654 5 11.322714 20.077286 2.25818
655 2 15.111327 56.179319 5.176453
656 2 15.497235 57.731385 5.408968
657 5 15.135268 56.896914 5.853
658 2 12.030553 10.448409 12.131111
659 2 12.97825 9.57806 13.108996
660 5 12.691571 9.716291 12.148145
661 2 32.401965 41.702643 14.134684
662 2 32.719496 41.984622 15.694029
663 5 32.693619 42.398221 14.770561
664 2 31.839298 57.736533 17.648193
665 2 31.421043 57.369189 16.130953
666 5 31.074873 57.690165 17.026312
667 2 23.416843 52.472231 9.529158
668 2 23.80358 53.632846 10.585237
669 5 23.859175 52.640289 10.394796
670 2 15.781892 1.979725 9.054589
671 2 16.168205 1.000219 7.828528
672 5 15.881441 1.032174 8.79872
673 2 14.747786 31.476882 14.162973
674 2 14.607779 30.761709 15.605478
675 5 14.101309 31.234665 14.867692
676 2 11.090061 41.266484 5.630185
677 2 11.093323 41.734649 7.177022
678 5 10.734473 41.943135 6.253828
679 2 23.858285 3.163983 7.013256
680 2 23.214016 1.923419 6.202198
681 5 23.102302 2.901832 6.436196
682 2 33.212308 38.415997 8.460286
683 2 33.245341 39.371446 9.763329
684 5 33.815307 38.904793 9.069139
685 2 4.218849 58.289587 11.00006
686 2 5.141133 59.285402 10.12277
687 5 4.335089 59.232041 10.732665
688 2 13.480371 1.510976 14.362189
689 2 15.061282 1.612286 14.042266
690 5 14.324457 1.000394 14.369686
691 2 22.450946 10.331933 10.012359
692 2 22.619195 10.47999 8.411839
693 5 21.979691 10.597933 9.1875
694 2 27.359781 13.00632 17.388761
695 2 27.215618 14.309506 16.443871
696 5 26.745332 13.477645 16.777586
697 2 11.204833 31.59655 14.450591
698 2 11.460904 31.377851 16.031254
699 5 11.90076 31.393784 15.119771
700 2 33.245826 21.297959 14.249787
701 2 32.381841 22.062676 15.381438
702 5 33.008872 22.190371 14.597185
703 2 21.009735 1.30106 14.617269
704 2 21.557913 1.000011 13.127045
705 5 21.831029 1.168901 14.086947
706 2 3.180809 6.964976 17.177979
707 2 2.533616 7.012547 15.697852
708 5 3.137856 7.497898 16.348895
709 2 11.973013 29.246043 16.30887
710 2 13.280528 29.36356 17.251467
711 5 12.841077 29.70462 16.405838
712 2 8.110348 27.091302 17.5798
713 2 7.05682 26.612585 16.451614
714 5 8.037404 26.652112 16.699447
715 2 10.63021 18.20339 6.314418
716 2 11.442592 17.454977 7.494167
717 5 11.529559 18.075391 6.699151
718 2 27.698117 56.060163 1.00315
719 2 26.91085 56.632502 2.293319
720 5 26.93704 55.888956 1.607038
721 2 7.607448 25.155439 8.581347
722 2 8.607362 24.6711 7.407685
723 5 7.660915 24.963946 7.615064
724 2 33.958723 4.584614 6.40508
725 2 34.086118 4.330145 7.995964
726 5 34.35577 4.940695 7.235015
727 2 25.259902 42.940133 4.528343
728 2 24.54263 42.913255 3.080347
729 5 24.464489 43.24778 4.032457
730 2 25.452572 42.596664 10.48681
731 2 24.72411 42.136573 9.119493
732 5 24.649649 42.736888 9.931038
733 2 34.038052 48.390289 13.655259
734 2 34.515486 49.144595 15.002469
735 5 33.789093 49.094863 14.299328
736 2 19.037446 27.653635 8.702339
737 2 18.709752 28.094037 10.222391
738 5 18.301731 27.810071 9.340683
739 2 24.467178 4.367356 10.822117
740 2 25.246396 3.015561 11.243263
741 5 24.693562 3.789696 11.589118
742 2 25.77557 24.777086 1.715242
743 2 26.353536 24.461013 3.19103
744 5 26.478126 25.026973 2.361154
745 2 35.030947 21.28242 3.340439
746 2 34.782854 21.369947 4.935018
747 5 35.484569 21.248036 4.21581
748 2 15.21918 32.938356 17.160244
749 2 13.797761 32.781149 16.407418
750 5 14.264732 33.182727 17.210661
751 2 6.395095 56.25559 14.056145
752 2 7.888241 55.701021 13.782532
753 5 7.350021 56.500795 14.091091
754 2 21.69826 55.985473 2.800381
755 2 23.083015 56.651964 3.300522
756 5 22.374676 55.96245 3.51813
757 2 28.865863 55.650008 5.038524
758 2 30.462718 55.888765 4.968214
759 5 29.72651 55.372258 5.432698
760 2 13.900856 52.554368 15.820535
761 2 14.510353 52.809397 14.345622
762 5 14.511274 53.132806 15.304753
763 2 18.024221 48.438292 4.400345
764 2 17.138689 47.714918 3.258217
765 5 17.21056 48.532555 3.850527
766 2 8.455465 14.608292 12.336464
767 2 8.582817 14.681753 13.945899
768 5 8.024282 14.962738 13.149901
769 2 18.552631 16.569682 6.483144
770 2 18.019966 16.287177 4.983692
771 5 17.767464 16.655473 5.892058
772 2 20.643166 3.035437 10.589777
773 2 20.670044 2.812697 8.98929
774 5 20.789889 2.359476 9.886371
775 2 21.604528 28.317101 4.800118
776 2 22.479654 27.8252 3.533594
777 5 22.224226 28.62605 4.09744
778 2 26.041401 40.542309 9.961676
779 2 24.568739 39.992929 9.585719
780 5 25.147831 40.352324 10.33406
781 2 28.216815 45.573849 7.592242
782 2 27.424503 45.859922 8.971481
783 5 28.333126 45.672079 8.566949
784 2 32.244926 23.217825 11.277787
785 2 32.247639 23.392917 12.884408
786 5 31.996436 22.774624 12.123397
787 2 6.346696 46.790312 11.733955
788 2 5.941521 47.328162 13.20312
789 5 6.581294 46.734453 12.690551
790 2 29.511595 11.498678 4.191977
791 2 27.940964 11.623025 3.832045
792 5 28.625637 11.099947 4.363214
793 2 18.649196 31.704715 18.376068
794 2 18.145486 32.021204 16.873401
795 5 18.451274 32.436248 17.744469
796 2 18.231284 20.521917 12.149749
797 2 17.069755 20.72724 13.254552
798 5 17.424681 21.048477 12.362721
799 2 36.431802 15.298283 11.121295
800 2 36.59833 15.857012 9.613985
801 5 37.075979 15.702507 10.492909
802 2 11.123687 59.568171 5.932693
803 2 10.35567 59.178014 4.565279
804 5 10.31967 59.758534 5.393667
805 2 10.820456 44.502838 15.162333
806 2 9.567333 44.885926 16.108283
807 5 10.287766 44.196595 15.934141
808 2 5.058812 26.744379 6.873602
809 2 5.085281 28.35613 6.757606
810 5 4.843149 27.577043 7.356707
811 2 17.038937 38.328522 2.769096
812 2 17.269941 38.04199 4.342765
813 5 17.689883 38.423043 3.504328
814 2 1.002052 25.469762 4.516378
815 2 1.146918 24.298816 3.411934
816 5 1.644785 25.020387 3.91789
817 2 11.834589 60.475 3.549486
818 2 11.547298 61.949613 4.145201
819 5 11.822758 61.004756 4.381621
820 2 2.494908 46.809823 8.15621
821 2 1.000984 47.272441 7.748694
822 5 1.56876 46.488672 8.045111
823 2 14.943937 36.727071 10.84461
824 2 14.592757 37.161917 9.328207
825 5 15.345465 36.9603 9.974202
826 2 31.485987 2.623652 4.627661
827 2 32.500982 2.357354 3.398528
828 5 31.654588 2.037533 3.852245
829 2 2.435073 54.424767 14.614207
830 2 1.46832 54.172815 13.343851
831 5 1.523289 54.152099 14.354335
832 2 33.704292 45.21238 16.256313
833 2 35.294071 45.43687 16.071648
834 5 34.489011 44.926443 15.731253
835 2 23.611468 23.332792 1.878336
836 2 22.150949 23.396517 1.189337
837 5 22.93661 22.794427 1.400884
838 2 36.949857 41.585797 18.999714
839 2 36.26964 41.776664 17.546177
840 5 36.584889 42.259349 18.378139
841 2 21.301319 34.197092 9.359142
842 2 21.149021 34.206773 10.968057
843 5 21.763011 33.966755 10.199985
844 2 21.276175 10.956161 3.332173
845 2 21.084885 12.552089 3.500451
846 5 20.598654 11.66993 3.400946
847 2 11.617293 26.207273 1.169402
848 2 12.937261 25.594246 1.872096
849 5 12.449857 25.708543 0.99238
850 2 3.674622 13.5135 2.361764
851 2 2.967869 13.00223 1.00125
852 5 3.318007 13.814871 1.492723
853 2 29.280857 41.335869 11.14131
854 2 28.743823 40.373068 9.959572
855 5 29.507854 40.967828 10.254603
856 2 12.344411 42.326022 8.884965
857 2 13.023485 42.741543 7.478516
858 5 12.895808 43.015393 8.444556
859 2 11.805181 2.604461 5.246249
860 2 10.346379 3.120473 5.712644
861 5 10.933172 2.303977 5.596308
862 2 29.495675 13.923217 11.376918
863 2 28.452989 14.982279 12.01181
864 5 29.346785 14.883466 11.547169
865 2 4.787343 10.417998 12.441416
866 2 5.027172 9.430639 11.184635
867 5 4.496954 10.225606 11.518437
868 2 4.691044 12.328325 16.739688
869 2 3.208614 11.694575 16.627187
870 5 4.115897 11.595746 17.064905
871 2 25.245511 31.066283 10.982421
872 2 23.677481 31.088115 10.591651
873 5 24.376583 31.471145 11.215407
874 2 31.904194 41.528744 4.596164
875 2 31.723877 40.209679 5.512378
876 5 32.385731 40.903432 5.188058
877 2 35.888143 27.002157 16.763235
878 2 35.895916 28.479916 17.417501
879 5 35.895076 27.964521 16.546355
880 2 6.656756 53.417539 12.008564
881 2 7.258644 53.612051 13.495774
882 5 7.252557 53.983626 12.554274
883 2 8.134816 17.954897 6.531277
884 2 8.668555 17.868437 5.008273
885 5 8.632046 17.385738 5.897202
886 2 9.561092 61.751526 2.751106
887 2 9.804609 62.120371 1.196581
888 5 10.251607 62.018215 2.098957
889 2 11.412697 24.497192 3.752943
890 2 11.203565 26.024236 4.239046
891 5 11.41078 25.433888 3.443383
892 2 36.398107 17.785405 10.639035
893 2 37.691997 18.291469 9.813417
894 5 36.968824 18.57086 10.464178
895 2 30.73512 41.668946 2.266189
896 2 31.547838 40.354925 2.740253
897 5 31.40133 41.001855 1.975698
898 2 22.312725 10.014164 5.028529
899 2 21.711384 9.796853 6.5128
900 5 21.590399 10.293952 5.639426
901 2 18.370934 14.197301 8.326035
902 2 18.544692 14.191394 6.719277
903 5 18.046661 14.613819 7.492614
904 2 33.652931 1.074892 5.388968
905 2 32.670546 1.929465 6.346318
906 5 33.012669 1.000403 6.135792
907 2 5.103131 27.466126 1.537967
908 2 6.003219 26.226035 1.024244
909 5 5.169621 26.481845 1.538251
910 2 5.624523 33.882991 8.542509
911 2 6.408755 35.153496 7.923888
912 5 5.555088 34.611352 7.880769
913 2 11.651653 23.483653 12.189122
914 2 11.467809 25.085292 12.30247
915 5 11.367327 24.207421 12.796204
916 2 30.848798 29.522542 15.830428
917 2 29.844563 28.414472 16.44328
918 5 29.939124 29.148733 15.753029
919 2 15.354113 40.179194 9.339746
920 2 16.901983 40.105244 8.880919
921 5 16.250433 40.553186 9.512867
922 2 22.116367 21.938059 13.113147
923 2 22.301067 20.658147 14.082481
924 5 21.886714 20.984445 13.218555
925 2 19.861883 35.730824 10.0375
926 2 20.04084 37.294517 10.404562
927 5 20.340803 36.355081 10.63262
928 2 15.104657 17.85942 16.441503
929 2 14.90198 16.604263 15.443807
930 5 15.530141 17.351851 15.710361
931 2 9.590244 30.678428 5.72338
932 2 10.885515 30.267197 6.598056
933 5 9.873578 30.282451 6.581374
934 2 11.594537 10.325918 7.396121
935 2 12.205438 9.147863 6.473688
936 5 12.223458 10.142887 6.658429
937 2 21.227258 29.782545 12.6348
938 2 21.787505 29.23248 11.222197
939 5 21.242007 28.994855 12.041033
940 2 23.460219 43.235078 6.324929
941 2 23.348129 43.374311 7.93115
942 5 22.991399 42.885827 7.119575
943 2 9.782406 47.398791 2.231266
944 2 11.000396 46.631686 1.496454
945 5 10.765242 47.318989 2.201326
946 2 16.337607 48.106327 9.450114
947 2 17.015316 49.543257 9.746487
948 5 17.130885 48.542272 9.842404
949 2 23.904204 18.523101 14.698087
950 2 23.141599 17.117887 14.462076
951 5 23.872174 17.580684 14.98801
952 2 16.389885 50.927801 12.029977
953 2 16.395367 51.506493 10.52101
954 5 16.873737 51.526312 11.412804
955 2 31.270833 3.6229 2.083005
956 2 32.554343 3.11221 1.24414
957 5 31.567861 2.961796 1.413716
958 2 7.891817 40.971586 11.409975
959 2 7.252541 42.032811 10.372177
960 5 7.356132 41.797919 11.351269
961 2 17.019121 59.303898 12.486723
962 2 16.607162 58.3508 11.248259
963 5 17.014148 58.367976 12.174863
964 2 31.318791 33.448867 6.273772
965 2 32.914479 33.555022 6.507026
966 5 32.00845 33.805547 6.882361
967 2 21.144959 41.724299 7.383744
968 2 21.420302 41.345349 5.83698
969 5 21.306341 40.969191 6.769742
970 2 37.307926 28.333003 13.351749
971 2 37.898662 28.39932 11.848909
972 5 37.093843 28.144513 12.40736
973 2 37.300884 29.071969 9.698905
974 2 37.833737 30.410656 8.966866
975 5 37.89863 29.849349 9.806658
976 2 21.852487 11.049721 1.003594
977 2 22.372418 12.540465 1.348919
978 5 21.573173 11.919937 1.374994
979 2 28.019297 46.992572 11.106017
980 2 29.10589 48.08374 11.596493
981 5 28.687154 47.186306 11.805778
982 2 25.043454 48.004642 8.383889
983 2 25.52948 48.062235 6.843643
984 5 24.7699 47.798916 7.458645
985 2 14.68994 29.044951 2.28534
986 2 16.048298 28.474929 2.950046
987 5 15.079545 28.708842 3.127047
988 2 14.00377 6.913619 6.69509
989 2 15.23624 7.094158 7.724808
990 5 14.232864 7.174532 7.618492
991 2 25.203688 51.66284 14.654133
992 2 26.403119 51.544022 13.577498
993 5 26.13674 51.928541 14.475114
994 2 16.577665 19.75718 1.132432
995 2 16.152477 20.832282 2.261709
996 5 16.700387 20.692153 1.422254
997 2 24.297358 52.430774 12.63554
998 2 24.332023 53.700965 13.634194
999 5 24.891369 53.112905 13.029342
1000 2 15.68534 33.667553 4.401498
1001 2 16.061322 32.700659 3.162284
1002 5 15.922841 32.739917 4.164187
1003 2 25.07541 20.048946 6.750808
1004 2 26.010939 20.136795 5.435908
1005 5 25.933846 20.396694 6.411119
1006 2 12.432631 59.768305 8.380657
1007 2 13.084774 59.496185 6.927194
1008 5 12.580156 60.168441 7.491074
1009 2 30.815012 7.081902 3.433071
1010 2 31.655374 8.159293 4.296156
1011 5 30.878845 7.510454 4.319355
1012 2 34.232721 47.355384 16.250871
1013 2 34.227856 48.342515 17.530498
1014 5 33.643605 47.867768 16.853893
1015 2 20.598572 62.1231 6.343403
1016 2 19.966663 60.637564 6.267433
1017 5 20.677611 61.250855 5.88934
1018 2 1.001219 41.859985 12.20001
1019 2 1.959928 42.257908 13.438731
1020 5 1.325986 42.620526 12.737908
1021 2 22.095561 35.711341 4.598325
1022 2 21.61406 35.915669 3.069174
1023 5 21.940132 36.391534 3.900893
1024 2 26.182486 49.64725 3.745436
1025 2 27.486129 49.761665 2.797112
1026 5 27.118092 49.35071 3.645753
1027 2 35.953689 29.692086 8.032722
1028 2 35.951877 28.905785 6.620765
1029 5 36.532754 29.222055 7.386978
1030 2 26.969604 31.226993 9.619906
1031 2 27.150847 32.115344 8.282043
1032 5 27.422002 31.256358 8.743718
1033 2 18.781175 46.63695 5.409524
1034 2 19.091639 46.390698 6.976326
1035 5 19.210975 46.015537 6.043834
1036 2 25.891338 7.399555 6.124207
1037 2 24.881269 7.104433 7.350812
1038 5 25.041116 7.68352 6.536174
1039 2 3.687978 12.178088 10.886245
1040 2 4.171322 13.030906 9.601342
1041 5 3.468007 12.959563 10.325763
1042 2 15.283007 53.044761 8.660845
1043 2 15.008844 52.387015 7.210294
1044 5 14.780384 53.161924 7.820088
1045 2 7.058792 45.537939 6.683744
1046 2 6.458034 45.075902 8.111157
1047 5 7.303691 45.330459 7.616593
1048 2 3.88767 12.499842 14.696797
1049 2 3.845607 12.29472 13.094283
1050 5 4.369064 12.700884 13.859496
1051 2 8.322238 10.46071 6.641615
1052 2 9.417233 11.510041 7.199993
1053 5 9.270396 10.725509 6.577518
1054 2 7.559301 40.945807 3.532949
1055 2 5.96391 41.157376 3.385089
1056 5 6.826625 41.586065 3.695696
1057 2 12.320643 37.533311 13.658563
1058 2 10.719066 37.338807 13.753506
1059 5 11.614118 36.934084 13.997652
1060 2 21.810594 30.847012 2.933016
1061 2 22.375878 31.17929 1.455877
1062 5 21.542477 30.97314 1.99204
1063 2 23.735966 57.93142 7.590974
1064 2 23.904573 58.139496 9.184765
1065 5 24.139007 58.51673 8.275226
1066 2 30.279056 31.60034 1.000786
1067 2 28.955001 32.527037 1.003629
1068 5 29.551958 31.941286 1.573774
1069 2 16.676353 41.770968 7.165708
1070 2 16.258092 43.172822 7.852554
1071 5 16.072941 42.54662 7.079173
1072 2 32.033484 60.271042 16.21123
1073 2 30.60119 60.870217 16.660029
1074 5 31.059148 60.139204 16.130479
1075 2 17.595828 30.761677 3.801406
1076 2 18.100053 31.950007 2.829026
1077 5 17.986648 31.667459 3.794341
1078 2 37.898799 43.516936 4.923354
1079 2 36.424062 42.951953 4.580074
1080 5 36.960341 43.515623 5.227536
1081 2 15.947931 15.359295 4.854345
1082 2 16.807248 15.211896 3.493557
1083 5 16.128949 15.782798 3.981929
1084 2 34.210015 31.37148 7.683807
1085 2 32.884995 31.427168 8.60745
1086 5 33.406029 31.906866 7.884304
1087 2 32.186692 42.440453 6.749278
1088 2 32.286068 43.784091 5.85672
1089 5 32.796455 42.97496 6.187386
1090 2 7.608179 28.66854 13.688963
1091 2 7.816007 28.288805 15.246046
1092 5 8.292656 28.52243 14.384215
1093 2 19.449858 13.149093 15.327023
1094 2 18.046149 13.198062 14.527586
1095 5 18.800274 13.758902 14.90346
1096 2 31.617215 11.779708 2.902979
1097 2 32.121899 10.830361 4.109598
1098 5 31.691635 11.71854 3.884789
1099 2 15.6259 6.014306 14.229448
1100 2 15.358549 4.459431 13.879044
1101 5 15.027863 5.405164 13.73495
1102 2 34.437635 43.719022 1.5235
1103 2 33.776994 44.783724 2.544215
1104 5 34.217499 43.875251 2.472375
1105 2 16.974195 8.734363 2.035137
1106 2 17.525506 9.283456 3.451629
1107 5 16.805698 9.394403 2.74871
1108 2 32.226992 11.929572 9.475536
1109 2 33.285059 10.71681 9.622509
1110 5 33.178547 11.72331 9.634374
1111 2 34.342175 39.460333 13.76303
1112 2 34.878487 39.817468 12.280896
1113 5 34.126873 39.964318 12.942741
1114 2 21.590222 38.631139 13.738046
1115 2 22.078138 38.078542 12.299828
1116 5 21.969562 37.84482 13.27866
1117 2 21.727564 57.393665 8.306591
1118 2 20.857584 57.223433 9.657906
1119 5 20.995356 56.875637 8.717382
1120 2 23.202977 30.503521 15.92413
1121 2 24.620441 31.275596 15.842941
1122 5 23.716549 31.258235 16.298138
1123 2 35.3438 53.598311 6.246303
1124 2 35.384319 53.205089 4.679258
1125 5 34.901365 53.050613 5.555283
1126 2 7.346899 15.52342 9.187411
1127 2 7.464008 16.243036 7.745075
1128 5 7.423444 16.401341 8.743985
1129 2 32.944567 10.606143 11.792426
1130 2 32.714865 9.132576 12.415108
1131 5 33.307009 9.953192 12.437036
1132 2 26.043194 29.78236 2.655387
1133 2 25.918916 30.540169 1.233354
1134 5 25.541338 30.479705 2.170535
1135 2 11.958582 19.066983 4.777903
1136 2 12.538216 18.583765 3.34877
1137 5 12.563425 18.41764 4.346915
1138 2 21.544638 55.586941 11.173886
1139 2 23.094582 55.446122 11.609476
1140 5 22.257858 56.006588 11.710956
1141 2 12.14097 57.878233 1.003677
1142 2 13.040536 57.826549 2.34532
1143 5 12.09993 57.74538 1.980353
1144 2 30.310895 22.8109 15.41123
1145 2 30.368118 23.620391 14.013609
1146 5 29.777321 23.068197 14.622353
1147 2 27.406847 48.787679 7.731016
1148 2 28.291054 47.866059 8.721315
1149 5 27.358548 48.209458 8.528862
1150 2 9.84626 49.781792 11.372107
1151 2 10.285495 50.890928 10.281792
1152 5 9.82743 50.747829 11.172986
1153 2 13.621917 31.631543 11.675884
1154 2 12.864856 31.247013 13.050981
1155 5 13.569709 30.950579 12.387779
1156 2 13.655493 34.658148 6.208323
1157 2 14.121842 35.657834 5.027204
1158 5 14.446074 35.012999 5.736844
1159 2 32.552538 48.70626 11.534408
1160 2 31.981566 48.868359 13.037608
1161 5 31.724841 48.711416 12.071177
1162 2 18.726193 4.252157 8.882118
1163 2 19.944452 4.920052 9.707742
1164 5 18.962475 5.003038 9.476743
1165 2 26.32362 21.866327 15.103151
1166 2 26.570554 21.382952 13.580893
1167 5 26.130084 21.143552 14.460211
1168 2 15.645099 27.572609 16.081887
1169 2 15.387734 27.201066 14.530238
1170 5 16.071723 27.544065 15.192838
1171 2 16.554198 54.602911 5.698984
1172 2 15.158355 53.97975 5.1744
1173 5 15.935057 53.842759 5.808825
1174 2 3.659156 25.178952 2.625949
1175 2 3.257473 23.716658 3.184737
1176 5 4.031676 24.322709 2.94424
1177 2 20.668321 61.664327 12.495371
1178 2 19.440055 61.931521 11.479563
1179 5 20.245288 61.346256 11.662842
1180 2 0.991888 34.701862 2.961208
1181 2 1.469865 35.118549 4.44775
1182 5 1.236396 35.47127 3.528181
1183 2 22.963525 38.716971 10.382912
1184 2 22.763201 37.11928 10.244529
1185 5 22.443843 38.021344 9.914654
1186 2 9.737336 48.837354 15.772717
1187 2 9.338799 50.402747 15.721632
1188 5 10.084774 49.736892 15.564512
1189 2 26.81988 29.032957 9.62671
1190 2 27.020329 28.429454 8.140944
1191 5 26.626971 28.251426 9.056423
1192 2 3.85358 61.970517 14.931142
1193 2 4.626396 61.347684 13.655708
1194 5 3.967366 61.148501 14.397687
1195 2 35.730506 59.202353 4.285963
1196 2 36.236901 58.850635 2.792057
1197 5 36.521693 58.937719 3.759444
1198 2 29.040119 2.323678 4.453692
1199 2 29.625167 3.462681 5.439739
1200 5 29.404922 2.4782 5.35717
1201 2 12.664527 61.446084 15.062457
1202 2 11.93556 62.014899 16.387958
1203 5 11.940273 62.037989 15.376043
1204 2 14.92193 14.792251 2.433628
1205 2 15.665977 14.381134 1.059119
1206 5 15.41932 14.065682 1.988731
1207 2 28.811474 57.109414 17.363768
1208 2 28.224976 57.065863 15.858437
1209 5 28.760095 57.615703 16.518627
1210 2 33.709691 24.935186 8.109627
1211 2 34.71645 24.705939 6.866333
1212 5 33.915973 25.232916 7.192001
1213 2 12.445724 47.262941 6.863356
1214 2 12.403823 47.138627 5.252553
1215 5 11.840064 47.258289 6.084649
1216 2 11.885501 9.373323 3.98202
1217 2 10.593268 9.886427 4.805883
1218 5 10.927086 9.201015 4.140074
1219 2 12.48063 30.782246 3.067085
1220 2 11.669248 30.319274 1.748294
1221 5 12.585878 30.539861 2.11661
1222 2 32.649031 7.671795 6.196982
1223 2 32.87932 6.710898 7.475864
1224 5 32.283884 6.891404 6.67749
1225 2 30.628947 17.224114 14.915945
1226 2 31.302983 17.486414 13.470687
1227 5 31.407331 17.000656 14.352548
1228 2 2.646579 41.753332 15.466118
1229 2 4.156217 41.623534 16.028293
1230 5 3.540314 41.390212 15.259689
1231 2 7.569494 33.95242 4.147456
1232 2 8.257103 35.399888 3.937871
1233 5 8.420003 34.445116 4.231812
1234 2 23.918067 3.297429 2.327371
1235 2 23.576401 4.525368 1.333727
1236 5 23.965913 4.27843 2.234743
1237 2 30.285956 48.975169 8.939281
1238 2 31.135761 47.877161 8.112174
1239 5 30.6117 48.739962 8.038281
1240 2 37.865247 24.296339 15.344065
1241 2 37.712807 24.862864 16.849956
1242 5 37.899378 24.036999 16.29528
1243 2 19.836703 56.403558 6.820067
1244 2 18.496044 55.593948 7.218893
1245 5 19.402894 55.899488 7.548734
1246 2 9.842568 19.204598 8.415388
1247 2 8.883587 18.321352 9.370442
1248 5 9.122059 18.530757 8.409293
1249 2 22.258869 38.475546 6.147699
1250 2 22.234904 38.423406 7.762816
1251 5 22.329986 39.031698 6.959406
1252 2 10.990776 29.291553 3.687362
1253 2 10.33184 28.065707 4.508946
1254 5 10.39227 29.073787 4.440754
1255 2 14.963356 49.275914 11.714125
1256 2 16.467316 48.728747 11.939085
1257 5 15.588506 48.553361 11.468491
1258 2 25.699063 10.256336 4.801008
1259 2 25.874275 10.850359 3.308248
1260 5 26.251341 10.199495 3.98554
1261 2 5.321078 36.83922 3.277564
1262 2 5.75865 35.29617 3.47612
1263 5 5.51181 36.151188 3.958346
1264 2 17.49428 26.011033 15.875007
1265 2 18.124127 26.806097 14.616809
1266 5 17.59514 25.988834 14.893903
1267 2 8.462267 36.54773 1.002361
1268 2 9.191342 35.118421 1.195807
1269 5 9.343779 36.113314 1.088674
1270 2 7.057045 35.016706 1.723604
1271 2 5.625017 35.21327 1.000726
1272 5 6.43982 35.694763 1.359594
1273 2 1.066496 55.71302 17.78002
1274 2 2.07431 55.601727 16.521521
1275 5 1.30348 55.154904 17.001832
1276 2 22.498424 12.605079 11.465505
1277 2 23.041897 13.018745 12.930228
1278 5 22.279198 13.126753 12.273606
1279 2 33.645633 14.096656 7.930832
1280 2 33.163458 14.066614 6.388593
1281 5 33.089105 14.566617 7.265517
1282 2 29.091834 61.147624 10.938155
1283 2 29.601597 62.151648 9.778856
1284 5 29.484964 62.038124 10.777874
1285 2 19.815939 11.102385 9.463396
1286 2 19.281271 9.979921 10.495917
1287 5 19.918565 10.758021 10.382151
1288 2 15.051124 1.015303 5.930129
1289 2 16.36137 1.938871 5.724771
1290 5 15.993439 0.999875 5.63852
1291 2 12.302221 55.96726 3.259209
1292 2 13.04731 55.628525 4.652765
1293 5 12.696631 56.375194 4.066217
1294 2 10.24525 32.843636 6.492497
1295 2 8.788092 32.748637 5.799992
1296 5 9.589245 33.347533 5.954932
1297 2 24.550749 28.83532 4.543112
1298 2 24.227768 27.264725 4.745129
1299 5 24.550077 28.105695 5.207097
1300 2 1.283775 7.30254 9.066619
1301 2 1.750746 5.755345 9.061743
1302 5 2.074621 6.713634 9.097993
1303 2 28.634578 54.974334 14.145812
1304 2 27.790417 56.276365 13.694143
1305 5 28.5195 55.630683 13.418354
1306 2 18.124153 1.000237 6.809582
1307 2 18.568112 2.43237 6.206432
1308 5 18.7112 1.777698 6.965021
1309 2 19.648845 14.581267 12.362481
1310 2 20.692275 15.341325 13.33483
1311 5 20.029995 14.578426 13.272398
1312 2 23.693169 25.581508 2.557532
1313 2 23.806886 26.001045 1.000948
1314 5 24.126643 26.214462 1.93729
1315 2 29.29308 61.618226 3.266939
1316 2 28.732632 61.664775 1.751807
1317 5 28.763469 62.159251 2.634456
1318 2 24.777393 10.92484 16.86702
1319 2 25.443134 10.918841 15.394387
1320 5 25.428746 10.455141 16.293999
1321 2 30.145008 46.998107 9.888168
1322 2 31.08143 46.177147 10.918232
1323 5 30.809345 47.102082 10.610024
1324 2 36.919832 9.082714 13.491463
1325 2 36.21332 8.397942 14.77358
1326 5 36.536135 8.238318 13.827621
1327 2 28.097292 37.400477 1.24073
1328 2 28.261915 37.43987 2.847978
1329 5 28.716552 37.189245 1.979059
1330 2 14.656151 52.242097 3.920146
1331 2 14.327936 52.63746 2.387874
1332 5 14.502065 53.005487 3.314569
1333 2 17.233865 62.15886 11.290327
1334 2 17.138587 61.956015 9.689805
1335 5 16.601734 62.105076 10.534848
1336 2 27.341518 47.63618 15.74348
1337 2 27.927027 47.664727 14.237406
1338 5 28.125586 47.399064 15.193714
1339 2 24.622081 24.539963 7.415822
1340 2 25.178266 24.122365 8.874645
1341 5 24.701607 24.845294 8.35053
1342 2 30.515497 14.216709 13.299532
1343 2 29.842734 15.658274 13.584443
1344 5 30.702238 15.184694 13.336448
1345 2 2.503625 48.803 7.326436
1346 2 2.305456 49.814555 8.571177
1347 5 2.742125 48.951781 8.272064
1348 2 8.843508 33.331013 10.261879
1349 2 7.232002 33.219418 10.311802
1350 5 8.092882 32.691043 10.246733
1351 2 8.794765 43.114814 2.9245
1352 2 8.097271 43.55438 1.534472
1353 5 7.932696 43.364545 2.514984
1354 2 24.047901 15.131691 14.757974
1355 2 23.25565 15.223897 13.352367
1356 5 24.019614 14.772708 13.839518
1357 2 21.089207 10.581723 13.278005
1358 2 20.441803 9.587727 14.37561
1359 5 20.698625 10.547716 14.183279
1360 2 27.895577 54.970003 9.871149
1361 2 27.989239 55.742978 11.287353
1362 5 27.553585 55.746978 10.373725
1363 2 31.114525 25.041708 3.102162
1364 2 31.328032 25.991466 4.392228
1365 5 30.64778 25.459353 3.864365
1366 2 12.877772 32.482367 1.128947
1367 2 13.467055 33.985295 1.052489
1368 5 12.624352 33.427048 1.000158
1369 2 19.660792 37.7084 13.241227
1370 2 19.027339 38.560923 12.023098
1371 5 19.885511 38.187567 12.408682
1372 2 1.873205 52.286192 11.576234
1373 2 2.659467 52.378455 12.985196
1374 5 2.646323 52.702135 12.026246
1375 2 33.136369 16.793718 15.700166
1376 2 34.042317 16.689714 14.365873
1377 5 33.654126 17.326007 15.050685
1378 2 29.754045 9.73065 10.873834
1379 2 30.957249 10.80962 10.878065
1380 5 30.370246 10.227784 11.462378
1381 2 1.870338 52.888343 5.049543
1382 2 1.63621 53.223555 3.485986
1383 5 1.519914 53.571001 4.429535
1384 2 31.329682 5.174332 14.660217
1385 2 30.74725 4.479757 15.998213
1386 5 31.014301 4.318156 15.035354
1387 2 29.093122 17.217487 1.009122
1388 2 27.687658 16.425035 1.101793
1389 5 28.604942 16.527121 1.517361
1390 2 9.032626 62.044 10.653838
1391 2 10.574567 61.73014 10.285319
1392 5 9.961009 62.157254 10.967702
1393 2 18.1424 40.573449 10.632025
1394 2 18.496042 40.975219 12.156955
1395 5 18.127731 41.318252 11.278774
1396 2 21.339663 12.682948 9.59695
1397 2 22.14174 13.862536 8.837253
1398 5 21.658366 12.982014 8.712519
1399 2 11.186895 20.129679 16.633196
1400 2 10.561066 18.749004 16.072868
1401 5 11.331323 19.154777 16.58918
1402 2 9.318504 28.890397 10.935822
1403 2 9.309421 29.364757 12.480748
1404 5 8.748304 29.274857 11.643136
1405 2 24.699183 44.232817 11.749815
1406 2 25.232538 43.847848 13.226035
1407 5 24.632719 44.474167 12.704049
1408 2 33.462135 29.945085 11.116413
1409 2 32.952224 28.880424 12.220218
1410 5 32.904033 29.84709 11.923971
1411 2 15.512551 54.039323 10.612003
1412 2 15.177558 54.364702 12.159195
1413 5 14.85278 54.469223 11.206241
1414 2 20.677858 46.521435 9.083798
1415 2 20.372123 45.156171 8.274802
1416 5 21.0951 45.814305 8.536893
1417 2 16.269318 34.507083 6.856705
1418 2 15.977142 34.993193 8.370054
1419 5 15.612611 34.459128 7.591325
1420 2 17.470136 5.001816 13.587449
1421 2 17.979929 6.27076 14.448721
1422 5 17.72 5.954008 13.523176
1423 2 21.752094 58.90101 10.764892
1424 2 22.38453 59.349235 12.182994
1425 5 21.663067 58.793291 11.741468
1426 2 24.975003 19.815804 12.824696
1427 2 24.182016 21.199883 13.084299
1428 5 24.376297 20.279167 13.457212
1429 2 8.704598 31.600769 12.050877
1430 2 9.088608 31.255874 13.582373
1431 5 9.456327 31.555193 12.688103
1432 2 1.216656 39.783864 12.897255
1433 2 1.63529 39.644604 14.452006
1434 5 1.895444 40.050049 13.561802
1435 2 16.249936 11.150125 1.001378
1436 2 15.58507 11.89018 2.275021
1437 5 15.389359 11.425558 1.397325
1438 2 32.200591 24.785981 16.519356
1439 2 32.235113 24.251389 14.994588
1440 5 31.630048 24.538205 15.753641
1441 2 6.636494 22.637927 7.967047
1442 2 8.211878 22.314433 7.807635
1443 5 7.422031 22.790068 7.389973
1444 2 15.511987 5.335194 6.42966
1445 2 15.965065 6.591452 5.519477
1446 5 16.280922 5.906893 6.194859
1447 2 3.101611 15.919185 15.588194
1448 2 4.209746 14.949445 16.254179
1449 5 3.925031 15.409884 15.398925
1450 2 8.999604 59.657517 13.233802
1451 2 8.3236 60.444188 14.473182
1452 5 8.370175 60.381432 13.464015
1453 2 15.749799 50.269794 6.85144
1454 2 15.691668 50.677168 8.41431
1455 5 16.273433 50.279965 7.687463
1456 2 2.676519 56.331293 1.001155
1457 2 3.404328 55.224696 1.92724
1458 5 3.370198 55.629838 1.000297
1459 2 11.236484 45.737604 17.255726
1460 2 11.044671 47.251949 16.724821
1461 5 11.224465 46.296576 16.442931
1462 2 26.861622 55.921294 8.178898
1463 2 27.252373 56.300635 6.657284
1464 5 27.609536 55.947638 7.536122
1465 2 12.973002 12.279268 14.383659
1466 2 13.398576 12.093814 12.835631
1467 5 13.374768 11.645781 13.74295
1468 2 8.098842 51.634131 19.001275
1469 2 8.365452 51.394357 17.425419
1470 5 7.894569 51.033719 18.245624
1471 2 19.154065 39.755622 13.864121
1472 2 17.953728 38.723021 14.187884
1473 5 18.514284 39.478251 14.561958
1474 2 31.530541 31.156748 6.117731
1475 2 31.249021 30.426125 7.531532
1476 5 31.186922 30.327063 6.526118
1477 2 24.489024 34.336202 1.074277
1478 2 25.309665 35.163118 2.194391
1479 5 24.644712 35.241018 1.435249
1480 2 14.549486 30.455106 10.074226
1481 2 14.627155 31.291354 8.693447
1482 5 15.170883 30.908471 9.456524
1483 2 32.989943 37.067733 11.215679
1484 2 33.091693 36.58642 9.676238
1485 5 32.727159 37.300752 10.293791
1486 2 10.281279 9.333548 9.79642
1487 2 11.039767 10.707007 10.183978
1488 5 10.758516 10.109191 9.417139
1489 2 30.063153 7.834839 6.339956
1490 2 30.196128 8.781733 7.642878
1491 5 29.580821 8.15619 7.138279
1492 2 36.459217 38.996952 1.448184
1493 2 35.886702 40.359698 2.101674
1494 5 35.9063 39.35109 2.18446
1495 2 20.46252 44.215087 5.885933
1496 2 21.76928 44.836182 6.606014
1497 5 21.200337 44.004998 6.506191
1498 2 23.181963 62.158918 8.171378
1499 2 22.453624 61.111616 7.179119
1500 5 22.303204 61.792925 7.912413
1501 2 22.365545 8.581154 11.393745
1502 2 20.754734 8.681149 11.478502
1503 5 21.581966 8.309386 11.927952
1504 2 22.798012 6.550588 7.787057
1505 2 22.88053 7.887043 6.882085
1506 5 22.255945 7.271713 7.387842
1507 2 22.276938 45.66274 17.22063
1508 2 21.771089 46.103313 18.690973
1509 5 22.059058 45.319179 18.119365
1510 2 25.829069 39.124946 13.421386
1511 2 24.865663 38.093121 14.208204
1512 5 25.643305 38.166693 13.564475
1513 2 13.065242 9.416468 2.048923
1514 2 11.822671 10.040228 1.225007
1515 5 12.6941 10.257818 1.691691
1516 2 37.390712 19.314756 14.637015
1517 2 37.100001 19.526558 13.061413
1518 5 37.01908 18.877995 13.834294
1519 2 3.34592 20.041637 7.260685
1520 2 2.134815 18.97512 7.348215
1521 5 2.907118 19.300055 6.780331
1522 2 31.608075 34.92573 11.122028
1523 2 31.316536 36.06371 12.231939
1524 5 31.18767 35.807261 11.261292
1525 2 29.836546 26.27079 5.985427
1526 2 28.796994 25.255656 6.69305
1527 5 29.573713 25.321945 6.047418
1528 2 27.034162 43.098966 15.561071
1529 2 25.559165 42.57009 15.165381
1530 5 26.44741 42.886172 14.797087
1531 2 11.655818 41.575109 14.772308
1532 2 11.821316 42.620748 15.993432
1533 5 11.224207 42.336792 15.22704
1534 2 33.671585 8.309813 16.670583
1535 2 35.199588 7.955822 17.060192
1536 5 34.321899 7.570756 16.734747
1537 2 21.422706 3.993832 4.391926
1538 2 20.581572 4.422066 5.703797
1539 5 20.91537 3.636975 5.15906
1540 2 15.255057 55.257642 7.349784
1541 2 15.963277 55.207148 8.801601
1542 5 15.37438 55.759189 8.190881
1543 2 24.060629 18.389714 1.709652
1544 2 23.90205 16.880725 1.153143
1545 5 23.925731 17.452869 1.98778
1546 2 18.041727 36.647345 1.629946
1547 2 18.958583 35.778444 2.638054
1548 5 18.261362 36.510053 2.581861
1549 2 30.625857 50.24182 10.936338
1550 2 29.897595 50.432426 12.366442
1551 5 29.756298 50.175798 11.397575
1552 2 28.863738 6.472207 8.356529
1553 2 29.957566 5.581747 7.567533
1554 5 29.830473 6.292409 8.276993
1555 2 15.381218 38.821525 6.90748
1556 2 14.097917 39.239086 7.796681
1557 5 14.944241 38.684088 7.781204
1558 2 1.095831 16.934585 6.344062
1559 2 1.003147 16.489195 7.894847
1560 5 1.45638 16.30172 7.009432
1561 2 33.991695 21.857957 12.235116
1562 2 34.138112 21.33908 10.71156
1563 5 34.167932 22.15428 11.310798
1564 2 23.018664 28.457948 15.130846
1565 2 22.334605 28.075039 13.717573
1566 5 22.182598 28.52488 14.611477
1567 2 36.174011 21.663819 12.428341
1568 2 36.411914 23.215251 12.813512
1569 5 36.261425 22.570002 12.04831
1570 2 16.112319 17.668092 10.068544
1571 2 15.309857 18.254002 11.343165
1572 5 15.389871 18.284943 10.334618
1573 2 35.763638 55.201011 17.307173
1574 2 36.776642 53.963772 17.072741
1575 5 35.852402 54.222364 17.394359
1576 2 11.793825 15.983571 14.183043
1577 2 11.203504 14.479522 14.218461
1578 5 10.996559 15.440394 13.976746
1579 2 8.356331 49.955337 9.374144
1580 2 9.04636 49.858365 7.915942
1581 5 9.148373 49.616422 8.893482
1582 2 33.044791 48.951438 1.000309
1583 2 31.583191 49.616093 1.18431
1584 5 32.429149 49.339495 1.666364
1585 2 21.035643 49.369673 8.703504
1586 2 20.811253 49.145948 10.288273
1587 5 20.781757 48.698736 9.380717
1588 2 17.703995 28.294586 16.476606
1589 2 17.848388 29.73588 15.759864
1590 5 17.207984 29.112375 16.234892
1591 2 37.137438 32.61165 12.881756
1592 2 37.539202 33.00241 11.36591
1593 5 37.903042 32.796924 12.287824
1594 2 20.427918 40.842608 15.28934
1595 2 20.902108 41.121148 13.769651
1596 5 21.15855 40.683866 14.64575
1597 2 27.582975 22.136557 9.025555
1598 2 27.938119 23.476649 8.194939
1599 5 27.187351 22.938317 8.608549
1600 2 11.191124 48.092257 8.99249
1601 2 12.304324 46.923862 9.079298
1602 5 11.317842 47.114557 8.956753
1603 2 27.810268 32.442009 13.640316
1604 2 27.940795 30.862464 13.956376
1605 5 27.298045 31.600959 13.699425
1606 2 34.896922 27.91167 12.642043
1607 2 35.246378 28.228681 14.187773
1608 5 35.270833 27.519184 13.466286
1609 2 29.494587 43.136657 9.888946
1610 2 29.857641 44.710294 9.827681
1611 5 29.181262 44.032961 10.156709
1612 2 5.835147 57.966874 12.456542
1613 2 5.044833 59.283036 12.961535
1614 5 5.748391 58.598769 13.209147
1615 2 32.545603 26.714044 6.285776
1616 2 33.948828 27.101583 5.58387
1617 5 33.382296 27.220694 6.41416
1618 2 5.98847 7.706467 7.835856
1619 2 6.05777 8.59638 9.18313
1620 5 6.074884 8.630052 8.171646
1621 2 21.406619 38.787096 16.280672
1622 2 20.182946 38.235757 15.38037
1623 5 20.514785 38.36796 16.327435
1624 2 23.196775 40.834584 7.88626
1625 2 23.52757 40.913747 6.306322
1626 5 23.863805 40.586319 7.20313
1627 2 29.320704 31.967359 15.269053
1628 2 29.412159 31.423797 16.788286
1629 5 29.912957 31.511595 15.91306
1630 2 35.001659 13.631657 11.228798
1631 2 34.498655 14.765321 10.192609
1632 5 34.328086 13.82833 10.535365
1633 2 28.93627 50.500919 1.290031
1634 2 28.662221 52.067034 1.000069
1635 5 29.345819 51.397518 1.330175
1636 2 34.030147 28.179467 1.233948
1637 2 33.554954 28.204535 2.778441
1638 5 33.481594 27.703819 1.90184
1639 2 20.260096 25.242099 9.665479
1640 2 20.543018 26.535065 10.592889
1641 5 19.859544 26.078375 10.002276
1642 2 12.177331 49.7104 14.177653
1643 2 12.931204 49.133206 12.869823
1644 5 13.057261 49.433038 13.828331
1645 2 36.319659 8.284702 5.003048
1646 2 36.195807 8.690021 3.443473
1647 5 36.703137 8.863281 4.302033
1648 2 32.106616 18.333226 7.057311
1649 2 32.006184 16.720522 7.088873
1650 5 32.352482 17.514397 6.565071
1651 2 23.905145 44.251797 16.743378
1652 2 24.156916 43.231426 17.971119
1653 5 24.190226 43.333649 16.964656
1654 2 31.698168 1.432941 10.638487
1655 2 32.464459 2.342228 9.544005
1656 5 31.950092 1.482106 9.685939
1657 2 13.170115 46.953363 1.664391
1658 2 13.367464 48.413625 1.000625
1659 5 12.823985 47.877173 1.664987
1660 2 12.796726 49.127337 10.672104
1661 2 11.714583 48.020651 11.13698
1662 5 11.844388 48.994255 10.892494
1663 2 15.232838 26.606064 9.799016
1664 2 16.434809 27.438605 10.48752
1665 5 15.429803 27.326581 10.443446
1666 2 30.628249 53.541499 6.910793
1667 2 31.003401 53.574086 5.339139
1668 5 31.373169 53.440815 6.271898
1669 2 14.999668 58.460845 7.423988
1670 2 15.4985 57.857872 8.83802
1671 5 15.746832 58.466281 8.068152
1672 2 7.658687 12.171456 5.428582
1673 2 8.495118 13.399877 4.793554
1674 5 8.330896 12.402308 4.744423
1675 2 14.870268 9.485821 8.937151
1676 2 14.130715 9.4358 7.501026
1677 5 14.433269 10.044208 8.251245
1678 2 26.43468 59.433174 6.715487
1679 2 26.102985 58.013142 7.412182
1680 5 25.759921 58.715501 6.769122
1681 2 5.000816 53.785304 7.746266
1682 2 5.475582 54.130627 6.240528
1683 5 5.722754 53.638952 7.090051
1684 2 35.160043 56.794151 1.341733
1685 2 36.605666 56.165263 1.697498
1686 5 35.890704 56.812732 2.004319
1687 2 27.969891 58.446051 13.380132
1688 2 28.698131 57.613466 12.201843
1689 5 28.786236 58.403979 12.827826
1690 2 15.949852 23.307311 2.179911
1691 2 15.315232 22.398063 1.004147
1692 5 16.16677 22.823921 1.347738
1693 2 9.696765 43.871362 5.963269
1694 2 8.797319 43.737348 7.299283
1695 5 8.949707 44.28195 6.45981
1696 2 14.242752 20.450093 10.861061
1697 2 15.221694 20.299872 12.138167
1698 5 15.19001 20.441954 11.136501
1699 2 7.942253 4.10013 13.448407
1700 2 7.795134 5.432451 12.545539
1701 5 7.617088 5.031479 13.457706
1702 2 36.877796 50.199542 4.820136
1703 2 35.963939 50.060364 6.145801
1704 5 36.310766 49.573038 5.329252
1705 2 27.788758 35.965476 6.104148
1706 2 27.547516 36.208112 4.524646
1707 5 27.86941 36.635005 5.384108
1708 2 17.937418 1.321361 9.525052
1709 2 18.501764 2.607246 10.324995
1710 5 17.89416 2.305735 9.573706
1711 2 14.087581 21.196276 15.172649
1712 2 14.309083 21.633035 13.632496
1713 5 14.244336 20.844868 14.26426
1714 2 23.287131 28.786268 8.423481
1715 2 22.352475 27.992767 9.476415
1716 5 22.849437 28.857678 9.304705
1717 2 2.421362 58.165908 9.738001
1718 2 1.534454 57.372945 10.831847
1719 5 1.523382 58.114747 10.143272
1720 2 3.996798 38.091715 5.431826
1721 2 3.867541 38.690176 6.927497
1722 5 3.418461 38.630249 6.022365
1723 2 25.553568 5.565105 15.57728
1724 2 25.201801 4.579742 16.809034
1725 5 24.984654 4.805449 15.846521
1726 2 37.469395 53.412641 3.496565
1727 2 36.370512 54.575856 3.27011
1728 5 37.037735 53.971376 2.807569
1729 2 23.306404 2.206621 15.626441
1730 2 24.291471 1.000446 15.194376
1731 5 24.093564 1.685457 15.912792
1732 2 32.134746 28.148494 4.674088
1733 2 30.804735 29.061061 4.775017
1734 5 31.474789 28.51967 5.306477
1735 2 29.225667 57.795522 10.071994
1736 2 28.537887 57.62141 8.619913
1737 5 29.017769 58.269197 9.231969
1738 2 27.822442 52.581714 4.573378
1739 2 27.375866 51.928491 3.164206
1740 5 27.410601 51.783506 4.165355
1741 2 25.175111 10.695301 11.758768
1742 2 24.589491 10.734002 10.252964
1743 5 24.727152 11.274485 11.097626
1744 2 21.230178 29.750697 8.105709
1745 2 20.504596 29.185806 9.43474
1746 5 20.979681 29.983251 9.031128
1747 2 8.236457 30.516847 9.900674
1748 2 7.831283 29.957754 8.439461
1749 5 7.925605 30.791495 9.005593
1750 2 19.597427 4.919882 13.031476
1751 2 18.765338 3.925957 12.066262
1752 5 19.555449 4.556717 12.11519
1753 2 23.47028 40.1141 3.756898
1754 2 23.572136 40.206604 2.14663
1755 5 23.565514 39.574077 2.936815
1756 2 37.005812 8.767214 7.346757
1757 2 37.899558 7.597527 8.0138
1758 5 37.863884 8.58591 7.798502
1759 2 24.599135 61.212955 5.621827
1760 2 23.100178 61.561371 5.128239
1761 5 23.962269 61.093763 4.877901
1762 2 8.931954 2.598131 1.132492
1763 2 8.040763 2.680505 2.478184
1764 5 8.904498 2.331883 2.082012
1765 2 2.265257 49.036495 3.982412
1766 2 3.13395 48.614915 5.278382
1767 5 2.625306 48.262732 4.477273
1768 2 10.269822 7.77694 7.640622
1769 2 9.869372 8.322564 6.173029
1770 5 9.812873 8.511146 7.165889
1771 2 32.302044 50.719033 14.182756
1772 2 32.099272 51.323686 15.667739
1773 5 32.148314 51.554977 14.683551
1774 2 7.746303 52.876929 7.513271
1775 2 8.893102 52.69869 8.637984
1776 5 8.282398 52.205927 7.998646
1777 2 35.010393 15.061985 4.625792
1778 2 34.578075 16.260035 5.620614
1779 5 34.806293 15.275363 5.567091
1780 2 3.735318 43.541452 5.685745
1781 2 3.153646 43.961731 4.237671
1782 5 3.863177 43.420272 4.715076
1783 2 34.092326 19.570392 6.613963
1784 2 34.301026 19.230196 5.047883
1785 5 33.615889 19.318291 5.787717
1786 2 35.622412 62.163891 7.458872
1787 2 35.152711 62.1562 9.005228
1788 5 35.211561 61.603604 8.159237
1789 2 25.617283 22.30016 5.347638
1790 2 25.282897 22.502861 6.915755
1791 5 24.886417 22.285781 6.010102
1792 2 12.986905 1.494991 11.035845
1793 2 14.011928 1.017338 12.190432
1794 5 13.046299 1.00053 11.887439
1795 2 22.647829 59.938141 9.043321
1796 2 23.577709 60.059249 10.359585
1797 5 23.020575 60.579509 9.693658
1798 2 26.793327 7.178328 8.435108
1799 2 27.024872 7.33689 10.026692
1800 5 26.38541 7.523174 9.264515
1801 2 31.359142 59.903894 1.631533
1802 2 31.330891 58.592061 2.575032
1803 5 31.929197 59.212941 2.044875
1804 2 8.078724 48.188014 12.003305
1805 2 7.263176 49.444166 11.395967
1806 5 7.276199 48.747553 12.130193
1807 2 37.9068 57.409544 11.864519
1808 2 37.370899 58.184988 10.551739
1809 5 37.892912 58.28655 11.412968
1810 2 12.236868 42.344547 4.069629
1811 2 13.14059 42.08204 5.383506
1812 5 13.166617 42.309965 4.397656
1813 2 12.012541 37.330853 9.352037
1814 2 10.571679 36.834527 9.890063
1815 5 11.04691 37.335715 9.150135
1816 2 22.057814 16.414051 16.891782
1817 2 21.46049 17.830346 16.392574
1818 5 21.686455 16.885408 16.108745
1819 2 19.106425 8.735242 4.903561
1820 2 19.983493 8.30046 6.189489
1821 5 20.00006 8.809562 5.314808
1822 2 21.284152 36.654618 8.639157
1823 2 20.807141 35.499516 7.614415
1824 5 21.611976 35.951859 8.029327
1825 2 3.531315 6.756332 4.847702
1826 2 3.564984 6.183888 3.336719
1827 5 2.991894 6.293052 4.163869
1828 2 3.862293 22.779241 6.50512
1829 2 4.307645 21.940879 7.81306
1830 5 4.612042 22.618902 7.125924
1831 2 10.272252 2.491294 13.059436
1832 2 11.719627 2.680877 13.75302
1833 5 10.824446 3.120844 13.580953
1834 2 32.48773 22.219841 1.008146
1835 2 32.05285 23.593326 1.740481
1836 5 32.626575 23.196546 1.007042
1837 2 17.313582 36.960869 8.357291
1838 2 17.81588 36.666518 6.849661
1839 5 18.106253 36.730177 7.817213
1840 2 16.747065 16.581387 17.824124
1841 2 18.105667 16.298189 16.995936
1842 5 17.231046 16.807665 16.994793
1843 2 5.701335 43.226835 7.173192
1844 2 4.662013 42.007297 6.962398
1845 5 5.51976 42.426343 6.625949
1846 2 26.301887 16.360644 15.719859
1847 2 25.378947 15.945736 16.97999
1848 5 25.371068 16.334959 16.045661
1849 2 34.489965 54.556069 1.869307
1850 2 35.181816 53.382132 1.000338
1851 5 35.303351 54.318905 1.363949
1852 2 14.879197 15.835109 9.935572
1853 2 13.796816 16.807289 10.639285
1854 5 14.619642 16.239362 10.797222
1855 2 13.169432 57.313309 7.838369
1856 2 12.477786 56.213187 6.877508
1857 5 13.361458 56.571553 7.216955
1858 2 28.945154 27.734646 11.766955
1859 2 28.148162 27.404874 10.400226
1860 5 29.063035 27.444498 10.831461
1861 2 6.730079 56.131228 6.195339
1862 2 6.438419 55.644418 7.708563
1863 5 7.046327 55.52665 6.907872
1864 2 20.845268 19.554731 7.594161
1865 2 21.490474 18.075988 7.688623
1866 5 20.64274 18.614614 7.814146
1867 2 20.063439 39.544596 10.338266
1868 2 20.257674 39.611398 8.735236
1869 5 20.65731 39.269565 9.600089
1870 2 32.426466 19.072064 14.50556
1871 2 32.309388 18.792577 16.093034
1872 5 32.519068 19.49293 15.392987
1873 2 16.554665 48.284122 17.138052
1874 2 16.350539 48.241053 15.535437
1875 5 16.021238 48.657797 16.39707
1876 2 21.589057 30.221712 18.999308
1877 2 20.539774 30.702347 17.867985
1878 5 20.699814 30.627093 18.864605
1879 2 36.689358 5.761355 8.059798
1880 2 37.40741 5.005517 9.294709
1881 5 37.507585 5.278311 8.325135
1882 2 36.631443 61.358394 10.834846
1883 2 37.624212 62.12179 11.85638
1884 5 37.198117 62.159182 10.939008
1885 2 6.349174 34.789319 5.757888
1886 2 7.848897 34.645679 6.342777
1887 5 7.207384 35.264362 5.862965
1888 2 30.139681 36.27049 16.34345
1889 2 30.165402 35.019822 15.320189
1890 5 29.906252 35.316291 16.252645
1891 2 17.156923 55.449533 10.996689
1892 2 15.85747 56.355106 10.675356
1893 5 16.572273 56.154496 11.363353
1894 2 4.780171 33.33043 3.435356
1895 2 5.434149 32.793665 2.05837
1896 5 4.89826 33.542222 2.479098
1897 2 9.29911 13.831088 9.705595
1898 2 9.825279 13.285262 11.132871
1899 5 9.77378 14.095867 10.528888
1900 2 10.012148 4.952953 18.829148
1901 2 8.722232 5.926266 18.803227
1902 5 9.040553 4.985188 18.997059
1903 2 26.134808 26.510089 3.95541
1904 2 25.475206 27.610383 2.972469
1905 5 26.339808 27.294614 3.393514
1906 2 12.736069 26.813688 11.817301
1907 2 13.405493 25.689212 10.868976
1908 5 13.556628 26.582159 11.321006
1909 2 30.989695 35.462005 7.920491
1910 2 31.535815 34.381183 8.990759
1911 5 30.973847 35.215109 8.875489
1912 2 24.98723 30.091394 17.662571
1913 2 23.665572 30.644931 18.410041
1914 5 24.446903 30.005671 18.483502
1915 2 25.973257 36.953062 15.72761
1916 2 24.67631 36.141908 15.206214
1917 5 25.134702 36.525546 16.023053
1918 2 11.280181 58.405905 13.077698
1919 2 12.007338 59.674435 13.766152
1920 5 11.735079 59.259577 12.883941
1921 2 26.370184 24.985815 16.551691
1922 2 27.697218 24.829057 15.642679
1923 5 26.899894 25.419992 15.841671
1924 2 7.880719 33.55822 8.238435
1925 2 7.039543 32.756702 7.115097
1926 5 7.41605 32.707885 8.053386
1927 2 37.898126 6.414133 15.764059
1928 2 37.898159 6.136818 14.171893
1929 5 37.37044 6.53355 14.939124
1930 2 7.400283 8.93752 10.892264
1931 2 7.848646 9.705009 12.242014
1932 5 8.184375 9.255343 11.399629
1933 2 9.960873 34.855407 7.572587
1934 2 10.049421 34.819287 9.185891
1935 5 9.819125 35.395249 8.386042
1936 2 13.026855 4.110561 4.056777
1937 2 14.546123 4.464975 4.478808
1938 5 13.931699 4.271308 3.698101
1939 2 8.261393 7.832264 4.727535
1940 2 7.742765 7.757466 6.256366
1941 5 7.803423 7.252476 5.381248
1942 2 24.506081 49.745339 15.474753
1943 2 24.3401 49.322173 13.923857
1944 5 23.861165 49.401691 14.812016
1945 2 18.109299 23.889879 11.302629
1946 2 17.346473 23.238245 12.569659
1947 5 18.245116 23.540326 12.215096
1948 2 24.180295 10.322416 13.684659
1949 2 23.122513 10.347887 12.463044
1950 5 23.522914 10.890765 13.217689
1951 2 13.91154 59.902573 2.500306
1952 2 13.344297 59.719687 0.99808
1953 5 13.228817 60.226941 1.866346
1954 2 36.109438 39.41319 8.331526
1955 2 37.639859 39.662571 7.875986
1956 5 36.896178 38.977743 7.925747
1957 2 35.490106 35.847784 2.728505
1958 2 34.826707 36.381797 4.102051
1959 5 34.630222 35.98262 3.192887
1960 2 19.6674 15.149094 18.035504
1961 2 21.229927 15.091084 18.444209
1962 5 20.457114 15.708051 18.228247
1963 2 30.792561 52.41123 2.663241
1964 2 32.016832 53.126476 3.438791
1965 5 31.264242 53.270139 2.777356
1966 2 17.153722 46.048461 11.833743
1967 2 15.576859 45.698118 11.885304
1968 5 16.260623 46.375185 11.571339
1969 2 37.626152 59.62447 13.195176
1970 2 36.295809 58.969916 13.838326
1971 5 37.206747 58.767546 13.446197
1972 2 35.468197 48.608086 7.72113
1973 2 35.083992 49.261551 9.148457
1974 5 35.708389 49.325406 8.354368
1975 2 27.498554 42.218805 9.779408
1976 2 27.598897 42.060915 8.174137
1977 5 26.993049 42.328893 8.939423
1978 2 9.598138 33.022809 14.920734
1979 2 9.178403 32.727313 16.453183
1980 5 9.451085 32.300779 15.57669
1981 2 13.501266 27.935887 9.592062
1982 2 13.529111 28.746608 10.989864
1983 5 12.963363 28.513964 10.183432
1984 2 0.999729 12.443285 4.034151
1985 2 1.003958 11.22693 5.098275
1986 5 1.110619 12.227689 4.990421
1987 2 1.707578 27.105145 3.219766
1988 2 1.002196 28.434096 3.809869
1989 5 1.781152 27.797054 3.919109
1990 2 16.270368 36.260125 5.325055
1991 2 15.601097 36.599303 6.756463
1992 5 15.768891 36.949404 5.82169
1993 2 29.70636 0.994726 11.562097
1994 2 30.90169 1.033709 12.649094
1995 5 29.900152 1.107811 12.522767
1996 2 24.851804 36.264789 4.284209
1997 2 25.336784 35.993981 5.80189
1998 5 24.945071 36.683311 5.172675
1999 2 1.057249 38.658255 8.222793
2000 2 1.600428 37.815906 6.955
2001 5 1.001094 37.783563 7.770034
2002 2 1.147699 21.871083 10.850468
2003 2 1.001144 20.477186 11.655123
2004 5 1.485704 21.365414 11.62718
2005 2 7.028065 29.204952 2.955591
2006 2 6.72095 28.949306 1.389634
2007 5 7.205852 28.592174 2.203178
2008 2 25.663644 16.574315 13.623795
2009 2 27.271302 16.466014 13.748701
2010 5 26.444112 16.032314 13.358587
2011 2 4.762551 16.70401 5.336864
2012 2 6.231289 17.302743 5.647062
2013 5 5.686946 16.452647 5.572535
2014 2 30.202778 56.039163 11.08082
2015 2 30.313327 55.075035 9.788484
2016 5 30.631296 55.944705 10.197258
2017 2 13.411436 55.351081 15.245884
2018 2 12.331376 54.150919 15.175339
2019 5 12.452125 55.141973 15.341946
2020 2 3.362034 59.797233 6.40987
2021 2 4.836803 60.269242 5.947096
2022 5 4.174251 59.504162 5.93275
2023 2 3.602101 40.585539 4.419718
2024 2 2.791793 41.57628 5.406494
2025 5 3.713248 41.264705 5.126549
2026 2 7.426573 23.872573 0.999953
2027 2 7.564062 23.318877 2.512042
2028 5 8.060522 23.477479 1.644344
2029 2 25.400246 28.879954 15.523717
2030 2 25.991979 30.073368 14.608561
2031 5 25.200605 29.458312 14.749847
2032 2 30.604166 21.365778 11.167355
2033 2 31.426507 21.642489 9.803874
2034 5 30.668 21.968867 10.389255
2035 2 7.902451 26.499056 13.480418
2036 2 8.239009 26.804372 11.929481
2037 5 8.629685 26.504683 12.813837
2038 2 22.560019 7.281665 16.194224
2039 2 23.518717 6.347038 15.28909
2040 5 22.639356 6.385785 15.78884
2041 2 28.028609 16.205981 7.430935
2042 2 29.099733 15.886335 6.26371
2043 5 28.194588 15.637248 6.642123
2044 2 21.620733 48.458745 3.088846
2045 2 22.049932 48.54525 1.533147
2046 5 22.330831 48.216459 2.448308
2047 2 30.14732 20.70265 8.281286
2048 2 31.15405 20.918834 7.035632
2049 5 30.635566 21.388558 7.767111
2050 2 35.133901 43.660234 17.49917
2051 2 34.03337 42.544215 17.893157
2052 5 34.358061 43.156873 17.155761
2053 2 28.98735 40.388117 1.874857
2054 2 30.076223 39.241145 1.542134
2055 5 29.088596 39.462688 1.54842
2056 2 6.836374 31.136367 1.933272
2057 2 7.29073 32.364601 0.986226
2058 5 7.543641 31.442097 1.317209
2059 2 6.120961 38.017244 4.943319
2060 2 5.732375 36.878315 6.022086
2061 5 6.500005 37.330837 5.541986
2062 2 5.296474 21.423933 4.742867
2063 2 6.746404 21.692128 5.404434
2064 5 5.808104 21.357503 5.583731
2065 2 16.700441 45.935325 5.846377
2066 2 16.429398 47.514862 5.637825
2067 5 16.771149 46.815971 6.285347
2068 2 1.000983 38.106296 3.011572
2069 2 1.103486 38.53874 1.457744
2070 5 1.263477 38.842694 2.409869
2071 2 21.681301 33.786608 3.6184
2072 2 21.993981 33.88082 2.035601
2073 5 22.356903 33.577687 2.930545
2074 2 14.643123 49.217995 5.214578
2075 2 14.75931 47.913465 4.26769
2076 5 14.152159 48.423528 4.89676
2077 2 20.81174 61.934746 3.803244
2078 2 20.684525 61.018911 2.477741
2079 5 20.647615 61.01404 3.489245
2080 2 9.187531 11.656733 9.406823
2081 2 8.959678 11.266097 10.958397
2082 5 8.817996 10.96308 10.003079
2083 2 17.092497 4.584459 10.799455
2084 2 15.798759 3.682162 10.447322
2085 5 16.193144 4.331408 11.116251
2086 2 21.404085 14.482949 0.999388
2087 2 22.89624 14.941397 1.417949
2088 5 21.911565 15.054097 1.623475
2089 2 16.909852 10.545302 5.364278
2090 2 17.04868 11.366005 3.978974
2091 5 16.416808 10.827045 4.557582
2092 2 25.806178 60.017211 9.861565
2093 2 26.938833 59.433428 8.867489
2094 5 25.975637 59.340213 9.164293
2095 2 31.92354 4.165363 8.359515
2096 2 31.892048 5.602115 9.098872
2097 5 31.403444 4.722947 8.985479
2098 2 4.909214 50.558861 14.829655
2099 2 4.557783 51.926677 14.043861
2100 5 4.578924 50.917267 13.971934
2101 2 21.264914 1.296801 7.510401
2102 2 20.698804 1.627208 6.033158
2103 5 21.118278 2.026754 6.863177
2104 2 36.186407 19.541047 8.653387
2105 2 36.186148 19.108747 7.096142
2106 5 36.675003 19.644021 7.802563
2107 2 10.108009 17.691536 1.938491
2108 2 10.526592 17.701227 3.499449
2109 5 10.825722 17.442306 2.567779
2110 2 21.107457 7.240784 18.999858
2111 2 22.030237 6.283449 18.081228
2112 5 22.000312 7.158925 18.588349
2113 2 6.497109 60.78955 12.285115
2114 2 7.548715 59.853375 11.491644
2115 5 6.593841 60.188715 11.508667
2116 2 7.815602 41.882419 6.641086
2117 2 8.210441 42.438077 5.17574
2118 5 8.550926 41.935271 5.985544
2119 2 32.215196 42.519748 11.707638
2120 2 31.529533 43.545639 10.663937
2121 5 31.579489 42.57763 10.955469
2122 2 28.410121 60.499796 14.980082
2123 2 27.436633 61.691501 15.474101
2124 5 28.101713 60.991519 15.777781
2125 2 18.092764 27.882557 4.727464
2126 2 18.317444 28.289168 3.179536
2127 5 17.937312 28.597365 4.065561
2128 2 20.38729 3.168954 16.470125
2129 2 19.379843 2.001029 16.952719
2130 5 19.650276 2.585101 16.171532
2131 2 15.005644 60.552725 6.743372
2132 2 15.827293 60.852166 5.384283
2133 5 15.56902 61.223592 6.289747
2134 2 36.10566 35.234226 13.325038
2135 2 36.391788 35.520848 11.76047
2136 5 36.623024 35.801114 12.705197
2137 2 36.33412 47.626717 14.604745
2138 2 36.1761 47.999225 13.040084
2139 5 36.719725 48.169461 13.876756
2140 2 4.942238 13.743303 11.854962
2141 2 6.317438 14.59133 11.815317
2142 5 5.796585 13.889617 12.32604
2143 2 15.257049 46.714219 1.000837
2144 2 15.359628 47.985767 1.993077
2145 5 15.603762 47.634778 1.075617
2146 2 36.443596 33.799426 7.380181
2147 2 37.900019 33.100417 7.426145
2148 5 37.351107 33.833342 6.994818
2149 2 16.142348 10.74028 10.219891
2150 2 17.402731 10.838068 11.226751
2151 5 17.048708 11.116647 10.320335
2152 2 23.835534 4.75861 8.528327
2153 2 22.270681 4.354771 8.535055
2154 5 23.084521 4.508228 9.116985
2155 2 35.372991 12.134544 14.983291
2156 2 36.601261 12.849179 14.213522
2157 5 36.294831 11.994569 14.661035
2158 2 21.794042 5.64989 10.639802
2159 2 21.070565 6.175606 11.985944
2160 5 21.214095 6.36135 11.00135
2161 2 27.052996 39.759681 6.902319
2162 2 25.989808 40.619452 7.763899
2163 5 26.089094 39.913628 7.045233
2164 2 14.222382 47.66937 9.863982
2165 2 13.686427 47.050004 11.257192
2166 5 14.390293 46.965687 10.534704
2167 2 31.417587 31.515334 11.414158
2168 2 30.873852 30.513526 10.268458
2169 5 31.66024 31.07831 10.563652
2170 2 25.694114 62.15836 14.215241
2171 2 26.557342 62.097302 12.850322
2172 5 25.621686 62.069357 13.235413
2173 2 23.057299 21.401 11.208884
2174 2 23.076593 19.870489 11.727593
2175 5 22.674279 20.505839 11.050097
2176 2 3.938702 25.804727 4.720589
2177 2 3.847651 27.074624 3.725115
2178 5 3.637892 26.742176 4.657856
2179 2 6.743274 51.644057 10.693004
2180 2 6.433264 51.762603 9.111316
2181 5 6.119548 52.032838 10.03494
2182 2 13.937348 44.237603 11.728021
2183 2 13.275777 43.2077 10.672786
2184 5 13.087839 43.811879 11.462833
2185 2 28.7029 9.696212 15.735006
2186 2 28.843354 9.546556 17.338056
2187 5 28.831731 10.205639 16.569941
2188 2 23.877036 52.90215 2.862896
2189 2 23.780448 54.278175 3.704989
2190 5 23.3475 53.377092 3.546455
2191 2 9.357546 50.198998 3.278328
2192 2 9.774778 50.567443 4.795582
2193 5 9.832039 50.865234 3.829886
2194 2 21.536854 35.869038 14.442768
2195 2 22.018541 36.147951 15.960029
2196 5 21.590734 36.562943 15.141927
2197 2 35.517191 59.214342 11.133256
2198 2 34.496113 58.876555 12.339571
2199 5 34.789608 58.607811 11.408891
2200 2 23.855153 35.615405 7.490844
2201 2 22.796066 34.861461 6.530741
2202 5 23.324668 35.714156 6.664972
2203 2 8.22416 29.061917 4.79605
2204 2 7.94744 29.186724 6.383421
2205 5 8.531014 28.7509 5.68055
2206 2 37.150599 44.634557 18.563041
2207 2 36.010145 45.75874 18.345157
2208 5 36.390011 45.086434 18.999554
2209 2 17.780584 33.536661 4.996259
2210 2 17.631427 34.182804 3.522438
2211 5 18.040628 34.308536 4.439648
2212 2 13.186397 5.713611 10.967954
2213 2 13.692585 6.460654 9.627209
2214 5 13.989965 5.938385 10.441659
2215 2 19.5856 59.405292 10.864977
2216 2 18.192711 60.224888 10.869027
2217 5 18.604788 59.30045 10.880669
2218 2 37.156414 21.785132 8.252373
2219 2 37.90024 22.636246 9.407458
2220 5 37.818367 22.49989 8.407843
2221 2 21.292105 33.851441 13.554378
2222 2 22.836787 34.326489 13.567935
2223 5 22.118758 33.873917 13.016446
2224 2 26.621441 11.443451 7.892677
2225 2 26.58958 11.442301 9.508499
2226 5 26.368115 10.905186 8.679651
2227 2 24.969789 57.154076 12.35962
2228 2 24.346969 58.251726 11.350088
2229 5 24.205706 57.338687 11.763527
2230 2 20.407118 26.246014 7.723106
2231 2 20.710838 27.773673 7.291935
2232 5 21.114947 26.932009 7.682863
2233 2 32.054312 61.980449 5.349266
2234 2 31.427377 61.613055 3.905704
2235 5 32.136079 62.156542 4.382035
2236 2 17.775231 35.173919 9.631241
2237 2 16.485093 34.927261 10.572835
2238 5 17.087123 35.633374 10.168494
2239 2 16.380878 30.809135 12.850328
2240 2 15.56198 29.776686 11.914727
2241 5 15.739903 30.755293 12.102343
2242 2 37.894311 59.017268 8.007995
2243 2 36.459181 59.716484 8.259777
2244 5 37.30244 59.381354 8.708252
2245 2 23.741043 33.422906 9.409976
2246 2 23.727706 33.314459 7.797538
2247 5 23.322805 33.788725 8.594817
2248 2 27.571091 61.506747 9.23301
2249 2 26.967192 61.67601 10.72249
2250 5 27.408235 62.162253 9.952051
2251 2 30.73992 41.814382 8.282811
2252 2 31.128466 43.375685 8.435333
2253 5 31.322037 42.441581 8.773722
2254 2 36.696339 10.270361 16.467141
2255 2 35.131695 10.648679 16.610878
2256 5 35.78335 9.954551 16.26728
2257 2 24.440157 21.215572 8.489058
2258 2 23.661548 22.527928 9.021397
2259 5 23.75225 21.52513 9.124816
2260 2 29.903218 38.629233 3.703022
2261 2 29.404071 40.133369 4.019757
2262 5 30.143457 39.460287 4.177221
2263 2 32.184465 53.945454 8.491747
2264 2 31.669128 52.413691 8.486847
2265 5 31.583504 53.310343 8.948595
2266 2 32.989648 12.79841 11.943619
2267 2 33.114593 14.32285 12.465507
2268 5 32.476921 13.626403 12.101002
2269 2 33.558371 58.505496 4.238929
2270 2 32.818575 59.909182 3.931906
2271 5 32.721388 59.007743 4.381894
2272 2 18.109337 29.994048 1.745514
2273 2 16.771028 29.466605 1.00888
2274 5 17.123862 30.005768 1.789482
2275 2 2.275296 24.234398 9.341823
2276 2 3.158534 25.515937 9.777074
2277 5 3.049922 24.515319 9.884289
2278 2 15.983826 1.370864 1.066062
2279 2 14.438503 1.65274 1.446087
2280 5 15.070864 1.003915 0.994785
2281 2 15.488508 22.627159 9.355921
2282 2 16.764133 22.026322 10.14565
2283 5 15.815047 22.362753 10.248497
2284 2 11.405545 27.241748 7.720387
2285 2 10.851528 26.759045 6.280956
2286 5 10.595804 27.192836 7.158998
2287 2 19.015932 21.408675 1.576661
2288 2 18.79239 19.844964 1.235003
2289 5 19.334707 20.668734 1.007363
2290 2 27.90734 6.519379 6.367476
2291 2 28.02145 4.946578 6.721274
2292 5 27.386118 5.68568 6.448129
2293 2 7.760915 13.801673 1.000235
2294 2 6.627121 12.977615 1.804807
2295 5 7.368436 13.660965 1.894322
2296 2 29.226795 57.357152 6.546876
2297 2 28.210119 57.809159 5.374718
2298 5 28.845602 58.143049 6.088304
2299 2 4.895214 60.222137 8.145515
2300 2 3.468494 60.200326 8.904387
2301 5 4.059378 60.729716 8.275795
2302 2 26.315531 1.250711 8.17324
2303 2 25.788242 1.001409 6.666021
2304 5 25.532518 1.349683 7.581356
2305 2 22.030389 54.308413 6.018509
2306 2 22.23324 52.84375 5.366199
2307 5 22.151358 53.353925 6.236568
2308 2 7.893888 53.321395 16.291669
2309 2 7.2959 53.287312 17.792716
2310 5 7.311339 53.805772 16.923528
2311 2 12.199495 15.902746 8.863986
2312 2 11.871468 15.764311 10.440416
2313 5 11.607139 15.4551 9.513569
2314 2 14.121719 15.439982 7.908502
2315 2 14.09796 16.593142 6.776445
2316 5 13.635469 15.757222 7.110911
2317 2 1.295547 50.755283 15.56546
2318 2 2.705733 50.281304 14.9341
2319 5 2.269144 50.91175 15.594748
2320 2 34.286881 4.856709 1.716134
2321 2 34.873105 4.645654 3.207339
2322 5 34.837193 5.27829 2.41803
2323 2 33.73015 7.720179 2.022679
2324 2 34.339841 9.173757 2.379448
2325 5 34.521227 8.29788 1.90567
2326 2 15.464372 61.64418 12.491889
2327 2 15.090969 61.522977 14.059618
2328 5 15.424322 61.014586 13.250334
2329 2 6.39348 47.864431 9.454958
2330 2 5.209226 48.141733 8.390748
2331 5 5.531317 47.519851 9.121534
2332 2 11.535235 29.441789 14.162945
2333 2 12.308107 29.135318 12.777073
2334 5 11.464405 29.520819 13.182145
2335 2 23.063948 51.465746 14.18182
2336 2 23.00791 50.65422 12.785331
2337 5 22.526127 50.82495 13.65898
2338 2 30.16911 31.313854 3.587617
2339 2 31.36832 32.206808 4.20115
2340 5 30.805151 32.038016 3.37721
2341 2 35.074194 27.689769 8.269712
2342 2 35.74105 26.383354 8.948298
2343 5 34.928949 26.731681 8.454651
2344 2 13.394892 8.092978 4.940487
2345 2 14.783582 8.645449 5.555477
2346 5 14.335577 8.291809 4.719559
2347 2 14.301649 11.233088 16.230443
2348 2 14.847338 11.251014 17.75156
2349 5 14.823295 11.763014 16.878746
2350 2 25.060229 29.03253 7.131351
2351 2 26.374845 29.678694 6.448596
2352 5 25.363382 29.705106 6.476392
2353 2 23.39417 16.867412 11.391207
2354 2 23.782546 17.949836 12.526733
2355 5 24.077554 17.528135 11.655145
2356 2 4.431939 9.119096 6.787881
2357 2 5.036192 10.191138 5.740265
2358 5 5.031371 9.898667 6.709267
2359 2 18.489917 46.483039 9.306126
2360 2 19.171271 47.52439 10.337262
2361 5 18.448252 46.824063 10.230895
2362 2 25.42064 59.982164 14.387484
2363 2 25.372347 59.494689 12.847377
2364 5 24.847476 59.54946 13.711111
2365 2 6.467286 57.966498 7.379749
2366 2 5.90162 58.143563 5.876231
2367 5 5.992264 58.589602 6.780311
2368 2 19.981826 47.220162 2.066648
2369 2 19.209768 45.987542 2.771254
2370 5 20.074833 46.512554 2.747728
2371 2 29.723042 55.200905 1.001051
2372 2 31.245598 54.658986 1.007589
2373 5 30.279587 54.404062 1.169956
2374 2 33.839388 44.863397 12.859543
2375 2 33.415482 44.439682 11.358655
2376 5 33.071608 44.787831 12.244697
2377 2 6.449595 7.569823 14.93912
2378 2 5.946153 8.837984 15.805265
2379 5 6.584451 8.052598 15.78881
2380 2 31.551063 15.009406 8.79605
2381 2 32.138385 14.074988 9.976648
2382 5 31.762461 14.076371 9.036857
2383 2 34.036916 41.859698 10.390356
2384 2 34.935732 40.770222 9.604818
2385 5 34.720646 41.159391 10.514111
2386 2 23.475474 39.75817 13.848134
2387 2 22.783982 40.155499 12.44248
2388 5 23.657952 40.129075 12.952387
2389 2 30.844695 50.874825 5.391429
2390 2 31.768314 51.035562 4.074999
2391 5 31.05291 51.477332 4.638527
2392 2 31.076102 52.320801 12.124134
2393 2 31.215823 53.562744 13.148805
2394 5 30.834346 53.267705 12.258886
2395 2 25.651792 34.011387 6.699312
2396 2 25.561854 34.445551 8.253439
2397 5 26.098264 33.920578 7.574325
2398 2 32.144198 9.188303 2.416011
2399 2 31.388222 9.392392 1.002241
2400 5 31.609647 9.8281 1.888614
2401 2 34.389817 42.769888 8.269261
2402 2 35.268816 44.108378 8.487669
2403 5 34.799011 43.345263 8.958271
2404 2 31.870545 13.90736 4.010657
2405 2 33.312986 14.341465 3.425155
2406 5 32.50952 13.74395 3.27701
2407 2 9.067534 24.773329 10.180256
2408 2 9.471541 24.39564 11.698816
2409 5 9.785641 24.852596 10.852022
2410 2 10.702129 24.213607 8.042663
2411 2 11.7498 24.661204 6.896392
2412 5 10.806876 24.782779 7.243724
2413 2 21.429848 41.742673 2.248634
2414 2 21.471601 40.24165 2.846198
2415 5 21.340628 40.790632 2.005965
2416 2 21.667502 56.432719 5.578079
2417 2 23.040915 56.222899 6.403675
2418 5 22.625458 56.667805 5.594983
2419 2 26.070041 24.069318 14.317019
2420 2 27.43942 24.359022 13.509078
2421 5 26.85001 23.633991 13.898249
2422 2 26.299206 12.855227 5.415503
2423 2 25.246754 13.440175 6.493499
2424 5 26.228393 13.360255 6.259993
2425 2 7.278359 49.352167 16.968191
2426 2 7.143704 50.495412 15.833838
2427 5 6.705737 50.090482 16.651606
2428 2 25.204036 23.086713 12.541897
2429 2 26.645177 22.778435 11.878593
2430 5 25.886778 23.44698 11.927648
2431 2 17.433151 32.267347 14.19083
2432 2 16.472786 31.939935 15.448763
2433 5 16.607204 32.548544 14.651233
2434 2 13.292593 4.723027 8.338347
2435 2 14.176438 3.380401 8.505887
2436 5 13.835544 4.206979 8.980321
2437 2 2.827658 42.451808 11.125813
2438 2 4.285392 42.988806 11.571392
2439 5 3.311176 42.930938 11.839869
2440 2 34.03125 60.390497 14.605366
2441 2 32.680438 59.918411 13.854142
2442 5 33.59576 60.329889 13.722243
2443 2 8.47316 42.11703 17.755534
2444 2 9.470588 41.788795 18.984067
2445 5 9.38717 42.26624 18.095465
2446 2 6.757386 17.845113 12.441524
2447 2 7.734762 17.030559 11.444964
2448 5 7.135469 16.952803 12.256954
2449 2 3.27819 45.589221 9.773077
2450 2 2.645175 44.104747 9.686334
2451 5 2.507688 45.075163 9.433516
2452 2 2.763667 49.85511 11.888465
2453 2 1.815231 49.400791 10.66129
2454 5 2.519907 49.088517 11.317373
2455 2 26.147816 28.502445 11.903986
2456 2 27.490106 29.382991 11.717463
2457 5 26.479753 29.421007 11.765089
2458 2 5.497679 50.777541 4.171197
2459 2 7.092303 51.030228 4.24345
2460 5 6.18373 51.460816 4.360141
2461 2 32.834803 45.754016 9.660228
2462 2 32.977931 44.556844 8.584035
2463 5 33.475173 45.115341 9.266207
2464 2 13.598417 50.990613 11.522138
2465 2 14.071314 52.401336 10.891166
2466 5 14.22118 51.400418 10.876028
2467 2 37.899344 45.815772 7.881012
2468 2 37.319408 45.599695 9.373955
2469 5 37.717736 46.275789 8.734612
2470 2 21.509511 44.038951 9.791442
2471 2 21.427234 44.165564 11.400509
2472 5 22.055655 44.13169 10.607749
2473 2 33.914114 53.560586 9.928735
2474 2 35.306385 53.632986 10.746192
2475 5 34.559357 53.020585 10.4438
2476 2 4.984379 45.065989 11.497094
2477 2 5.453909 45.514728 10.017205
2478 5 5.209125 44.723828 10.599516
2479 2 30.406188 45.29224 3.863293
2480 2 29.355849 44.357269 4.659856
2481 5 30.299882 44.413596 4.299086
2482 2 20.901319 23.895136 8.048968
2483 2 20.449942 24.329412 6.559149
2484 5 21.230624 24.277599 7.201317
2485 2 5.035903 6.369836 16.129447
2486 2 4.970077 4.849697 16.674185
2487 5 4.583612 5.502157 16.003761
2488 2 19.858555 18.993973 18.412914
2489 2 20.318777 20.439545 18.970063
2490 5 20.51509 19.446852 18.993512
2491 2 3.823865 22.990486 1.094332
2492 2 5.345824 23.172269 1.606673
2493 5 4.739158 22.634565 1.000572
2494 2 33.839106 58.10048 14.290442
2495 2 32.275987 57.765283 14.053378
2496 5 33.056705 57.649021 14.68701
2497 2 24.740736 9.017157 8.845159
2498 2 24.288438 8.566482 10.329819
2499 5 23.990552 8.64342 9.36552
2500 2 22.113225 40.755863 10.300362
2501 2 22.570349 42.121194 9.56633
2502 5 22.893816 41.325515 10.101859
2503 2 37.000547 6.157239 11.466406
2504 2 37.799422 7.290035 12.29735
2505 5 37.900977 6.511694 11.658289
2506 2 33.443728 45.104456 18.438188
2507 2 32.316732 46.117539 18.999829
2508 5 32.505314 45.386985 18.325103
2509 2 35.283172 37.952497 15.059595
2510 2 34.623903 36.679801 14.312933
2511 5 35.494097 37.093044 14.623611
2512 2 35.289367 60.945755 1.794332
2513 2 34.051338 59.917742 1.644766
2514 5 35.026276 60.071589 1.420368
2515 2 1.479773 19.670529 13.698652
2516 2 3.08896 19.521154 13.708743
2517 5 2.257956 19.444676 13.135933
2518 2 27.995543 41.790843 13.681983
2519 2 27.40881 40.570511 14.564269
2520 5 28.194891 41.196698 14.443877
2521 2 13.291117 26.363958 7.003768
2522 2 14.471228 27.123132 7.805571
2523 5 13.991351 26.239784 7.687496
2524 2 29.475863 1.527836 2.450052
2525 2 28.236635 1.367939 1.425044
2526 5 28.663643 0.999214 2.265421
2527 2 17.757223 18.343216 15.504442
2528 2 16.649326 18.968992 14.508016
2529 5 17.598139 19.062243 14.847994
2530 2 28.902022 26.026588 14.245858
2531 2 28.551997 26.855327 15.588457
2532 5 28.998942 26.906282 14.68172
2533 2 13.510303 61.909007 8.462838
2534 2 12.776554 62.159271 9.880891
2535 5 13.67445 62.083072 9.41991
2536 2 18.242177 48.934644 14.640217
2537 2 19.248363 47.819939 15.237643
2538 5 19.173745 48.779956 14.925673
2539 2 35.878529 23.706151 5.288586
2540 2 36.212752 23.069157 6.7358
2541 5 36.60234 23.318577 5.835501
2542 2 30.745824 61.439276 12.477856
2543 2 29.754069 61.707685 13.725363
2544 5 30.164191 62.11771 12.895781
2545 2 28.326559 38.786292 5.394978
2546 2 28.82114 38.395436 6.883103
2547 5 29.127096 38.683412 5.962241
2548 2 25.732277 1.000321 3.026226
2549 2 24.724936 1.012075 1.762493
2550 5 24.867049 1.349751 2.706053
2551 2 28.168841 45.303349 2.47247
2552 2 27.21409 46.558948 2.824348
2553 5 27.254185 45.657344 2.366057
2554 2 19.403537 11.831588 7.353873
2555 2 18.05395 12.047171 6.4913
2556 5 19.065272 12.074487 6.459554
2557 2 14.604541 3.128864 6.34398
2558 2 13.290422 4.063869 6.240286
2559 5 13.619363 3.119137 6.39458
2560 2 2.430513 16.994131 9.506279
2561 2 3.782225 17.674919 8.939447
2562 5 2.939906 17.176502 8.681361
2563 2 27.301182 34.0847 5.071532
2564 2 27.787554 33.223407 6.349621
2565 5 27.280662 33.184404 5.474369
2566 2 22.258011 2.736517 1.000273
2567 2 21.517245 3.376891 2.285995
2568 5 21.535929 3.350295 1.274328
2569 2 31.246428 47.414283 1.671634
2570 2 29.885483 48.227926 1.359051
2571 5 30.5127 47.92215 2.092281
2572 2 8.416548 11.866271 2.61443
2573 2 9.508597 12.839432 1.927202
2574 5 9.370623 11.942387 2.375309
2575 2 33.214564 26.732613 11.855251
2576 2 33.183025 26.81063 13.469194
2577 5 32.922851 26.252251 12.666044
2578 2 34.337938 35.345188 10.993752
2579 2 34.047543 35.45367 12.579879
2580 5 33.725544 35.050759 11.708956
2581 2 15.089528 6.146751 16.358808
2582 2 16.357871 6.277127 17.351885
2583 5 16.043805 5.917659 16.45932
2584 2 9.612602 6.147299 5.969255
2585 2 9.720071 4.870918 6.954748
2586 5 10.045234 5.267935 6.082295
2587 2 34.816769 9.058835 10.640821
2588 2 35.165856 8.785626 12.194974
2589 5 35.397529 9.346248 11.384691
2590 2 26.311461 45.192318 4.29846
2591 2 27.158782 43.990073 4.968199
2592 5 27.222411 44.829114 4.405625
2593 2 9.111788 55.058045 17.155621
2594 2 8.933174 55.793647 15.727727
2595 5 9.402967 55.835908 16.623291
2596 2 36.968905 35.951313 7.826183
2597 2 36.334165 36.331479 6.389355
2598 5 36.551878 36.683454 7.313066
2599 2 10.621975 44.017685 13.022809
2600 2 12.069874 43.386881 13.365691
2601 5 11.206931 43.240735 12.857265
2602 2 29.023001 40.476525 7.56876
2603 2 28.761476 40.849633 6.018183
2604 5 29.164025 41.176084 6.887614
2605 2 15.383197 23.553923 13.50498
2606 2 15.536792 24.429509 14.854666
2607 5 15.802436 24.36431 13.880136
2608 2 5.019638 14.669069 7.470892
2609 2 5.120007 16.267335 7.688533
2610 5 5.462288 15.369396 8.00646
2611 2 34.434848 26.491504 15.245222
2612 2 33.719702 26.638364 16.687059
2613 5 33.607126 26.290878 15.743074
2614 2 18.44968 36.212123 11.79559
2615 2 17.028061 36.972023 11.911549
2616 5 17.875468 36.729114 12.408967
2617 2 17.766288 53.313 12.335477
2618 2 17.849178 53.373472 10.722601
2619 5 18.393159 53.37419 11.576188
2620 2 2.466888 46.085639 4.554547
2621 2 2.21511 46.784472 5.989865
2622 5 1.842631 46.126034 5.317373
2623 2 14.101042 17.777301 8.628612
2624 2 12.93201 18.877037 8.817931
2625 5 13.143653 17.887458 8.839566
2626 2 17.499061 4.221 6.9178
2627 2 16.216173 3.741635 7.775881
2628 5 17.166758 3.510482 7.516106
2629 2 24.839704 24.422534 5.225468
2630 2 24.457298 23.593074 3.89218
2631 5 24.462286 24.511177 4.318314
2632 2 15.901075 44.629548 4.263084
2633 2 15.216269 44.304362 5.690385
2634 5 15.945047 44.028715 5.044299
2635 2 33.783881 13.700428 16.788761
2636 2 32.632665 14.834655 16.800063
2637 5 33.500367 14.537078 17.227928
2638 2 20.554492 32.805157 18.584904
2639 2 22.055298 32.372253 18.999719
2640 5 21.491442 33.113415 18.603143
2641 2 25.237172 56.202245 3.654227
2642 2 26.612062 56.453644 4.465628
2643 5 25.604301 56.405522 4.547046
2644 2 32.825246 55.512765 17.528866
2645 2 33.263723 55.916095 16.026548
2646 5 32.892957 55.172968 16.605186
2647 2 17.554736 59.356975 8.948766
2648 2 16.86809 60.474271 8.004274
2649 5 17.736439 60.176709 8.430836
2650 2 21.721354 17.204956 12.783116
2651 2 21.665218 18.551123 13.675629
2652 5 21.393764 18.135443 12.793557
2653 2 21.983281 15.188531 11.559879
2654 2 21.744912 15.669363 10.035452
2655 5 21.601557 14.913199 10.692866
2656 2 16.803634 35.152227 14.206599
2657 2 17.091524 34.693151 12.684014
2658 5 17.1784 34.424464 13.656016
2659 2 28.62171 28.791638 6.061195
2660 2 28.476815 30.338019 6.507966
2661 5 28.51799 29.383885 6.843317
2662 2 6.039794 62.153751 10.311041
2663 2 6.13634 62.159042 8.6978
2664 5 5.615678 61.806294 9.4909
2665 2 5.405942 10.939735 15.191574
2666 2 6.697373 11.399031 14.335333
2667 5 6.071857 10.628369 14.53367
2668 2 18.430606 20.613735 9.958838
2669 2 19.065047 19.369833 9.145149
2670 5 19.242428 20.061564 9.862486
2671 2 13.999666 56.07299 12.892462
2672 2 12.55455 56.697091 12.526357
2673 5 13.194247 55.935204 12.339699
2674 2 13.801736 61.682709 5.062567
2675 2 14.068154 61.865981 3.479112
2676 5 14.357246 62.161795 4.402934
2677 2 10.643416 24.24399 1.001565
2678 2 11.301227 23.15061 1.993381
2679 5 10.497222 23.360476 1.415402
2680 2 12.342462 38.658244 17.016776
2681 2 11.163807 38.786896 15.918542
2682 5 11.486904 39.109158 16.822027
2683 2 18.248346 44.364519 7.139355
2684 2 18.191699 44.13391 5.54076
2685 5 17.672806 44.04373 6.405135
2686 2 1.645128 28.879483 9.41454
2687 2 2.396899 30.175482 10.020445
2688 5 1.818636 29.838438 9.261142
2689 2 33.83777 4.554542 13.325784
2690 2 33.420444 5.768299 14.307889
2691 5 33.49094 5.477968 13.340797
2692 2 3.018655 35.316712 10.578923
2693 2 4.034584 35.243503 9.324162
2694 5 3.740103 35.803405 10.1143
2695 2 15.734445 12.535479 5.762785
2696 2 15.508916 12.930098 4.21188
2697 5 15.407957 13.250533 5.166687
2698 2 27.869969 35.411744 15.424854
2699 2 26.999073 35.319572 16.783139
2700 5 27.238071 34.841478 15.923585
2701 2 11.14363 22.294775 15.277751
2702 2 11.821077 21.202376 14.298146
2703 5 12.004568 21.887971 15.019823
2704 2 35.650996 14.433944 17.69178
2705 2 34.839609 14.924638 19.000507
2706 5 35.653264 14.416137 18.678141
2707 2 18.758307 28.168649 12.419959
2708 2 18.245325 28.844755 13.795322
2709 5 17.965552 28.293794 12.993639
2710 2 30.505905 59.561554 10.370854
2711 2 30.371826 60.110782 8.856831
2712 5 30.875866 60.212668 9.728662
2713 2 1.152826 60.949751 3.868092
2714 2 1.210607 62.159209 2.797687
2715 5 1.766273 61.562282 3.39722
2716 2 22.984173 49.09329 6.81905
2717 2 22.378178 49.245512 5.328583
2718 5 22.598255 49.741307 6.183147
2719 2 19.967747 43.540937 13.926974
2720 2 19.47491 43.327247 15.451226
2721 5 19.859482 42.864779 14.637129
2722 2 9.388227 38.071706 2.389635
2723 2 8.465189 39.101774 1.553659
2724 5 9.366324 38.976593 1.997295
2725 2 22.384609 42.509533 14.614428
2726 2 23.339726 43.78506 14.344834
2727 5 22.408514 43.495767 14.616276
2728 2 2.392169 60.04056 12.824892
2729 2 2.939293 60.792343 11.50301
2730 5 2.530341 59.935455 11.853763
2731 2 34.419526 59.948726 9.37351
2732 2 34.312244 59.630683 7.792614
2733 5 33.786192 59.719049 8.652839
2734 2 33.436711 40.167242 1.006584
2735 2 33.741993 40.296773 2.58833
2736 5 33.72372 40.797713 1.708983
2737 2 11.15627 7.947689 1.413361
2738 2 11.164118 7.380475 2.92667
2739 5 11.535268 7.246416 1.994573
2740 2 8.315951 17.58194 14.516429
2741 2 9.417722 16.52905 15.054406
2742 5 9.168224 17.140896 14.287645
2743 2 13.570588 19.239358 1.521945
2744 2 14.393105 19.656253 2.849183
2745 5 14.47443 19.436907 1.864399
2746 2 7.609581 15.892146 4.65074
2747 2 8.175778 15.781867 3.141053
2748 5 8.437331 15.876801 4.114246
2749 2 24.232263 27.041223 10.109966
2750 2 24.05279 28.329747 11.068816
2751 5 24.64919 27.894732 10.376286
2752 2 28.11036 49.662538 5.83907
2753 2 29.360274 50.047894 6.788337
2754 5 28.974491 49.333954 6.183368
2755 2 37.899169 27.755881 6.480099
2756 2 36.989582 27.643395 5.148974
2757 5 37.899367 27.90766 5.50532
2758 2 7.815384 6.325854 3.187577
2759 2 8.802651 5.220892 3.83276
2760 5 8.758036 6.140206 3.411573
2761 2 11.890708 6.301906 6.685956
2762 2 11.599739 6.682129 5.142368
2763 5 11.660984 7.048819 6.083811
2764 2 26.921691 26.59369 6.849819
2765 2 25.616268 26.767309 7.786634
2766 5 25.94838 26.437638 6.889112
2767 2 10.650538 17.689828 18.104117
2768 2 9.750168 16.367002 17.877485
2769 5 10.029944 17.067585 18.552345
2770 2 34.77476 16.446219 17.414229
2771 2 36.006277 17.468781 17.191452
2772 5 35.675404 16.527692 17.019979
2773 2 35.923622 50.295333 13.734924
2774 2 35.853954 51.100616 12.335438
2775 5 35.740008 50.194041 12.770944
2776 2 21.596774 53.479104 11.798319
2777 2 21.783056 53.272805 13.390373
2778 5 22.23071 53.170509 12.488337
2779 2 24.81307 38.517395 11.560391
2780 2 25.159252 36.956175 11.794154
2781 5 24.690296 37.613764 11.184084
2782 2 26.187093 3.115469 2.628667
2783 2 25.769305 2.976909 1.073626
2784 5 26.02809 3.630159 1.802202
2785 2 24.893557 30.17879 9.00009
2786 2 25.027591 31.7687 8.742958
2787 5 25.210635 30.852696 8.35314
2788 2 28.28931 4.345909 1.007447
2789 2 29.40882 3.180349 0.999614
2790 5 29.223076 4.142696 1.252427
2791 2 10.66827 58.648662 15.178861
2792 2 11.177918 57.144915 14.877366
2793 5 10.420309 57.697169 15.258903
2794 2 8.67905 47.111298 9.092081
2795 2 9.414459 47.924527 10.2794
2796 5 8.518589 47.612229 9.926678
2797 2 16.928488 22.387956 16.247242
2798 2 17.004363 22.600537 14.646946
2799 5 17.338038 22.039174 15.42029
2800 2 17.659649 24.591374 1.666903
2801 2 17.220298 26.002722 1.013479
2802 5 16.88413 25.17433 1.48812
2803 2 29.774586 35.41285 2.754305
2804 2 30.195103 34.109074 1.896851
2805 5 29.5083 34.488272 2.536411
2806 2 3.376031 53.777062 16.494241
2807 2 3.002732 54.191454 18.011087
2808 5 3.218765 53.415232 17.39844
2809 2 21.561548 33.089983 7.476828
2810 2 20.638553 31.763603 7.450506
2811 5 20.65941 32.756866 7.256801
2812 2 24.251441 35.608374 9.658567
2813 2 25.706102 35.407134 10.333369
2814 5 25.148214 36.010802 9.742714
2815 2 10.347648 30.826453 10.518701
2816 2 11.806255 30.516909 11.142034
2817 5 10.809862 30.469158 11.313641
2818 2 23.365888 30.155429 13.755039
2819 2 24.506646 29.759895 12.680739
2820 5 23.561341 30.105037 12.789384
2821 2 16.444234 14.140074 15.707472
2822 2 17.367561 13.723763 16.966855
2823 5 16.9474 14.502195 16.474885
2824 2 4.131494 52.994809 4.070421
2825 2 4.490628 52.308764 5.488962
2826 5 3.92659 52.225232 4.652655
2827 2 10.409377 26.969988 11.608278
2828 2 10.772303 27.4372 13.112237
2829 5 10.741733 27.729111 12.143537
2830 2 34.105095 38.10352 2.938173
2831 2 33.675753 38.751788 4.354969
2832 5 33.32819 38.337629 3.499282
2833 2 14.12968 11.230442 3.991874
2834 2 13.943404 11.104372 5.592282
2835 5 14.167348 10.595835 4.746252
2836 2 2.761249 33.050388 2.60022
2837 2 1.888369 32.959976 3.95735
2838 5 1.921305 32.698928 2.979957
2839 2 28.524693 11.952984 11.422261
2840 2 28.789803 12.518441 12.912856
2841 5 29.044879 11.800495 12.246509
2842 2 20.456648 51.561589 13.782348
2843 2 19.239264 52.564439 14.134719
2844 5 19.764932 52.139466 13.381327
2845 2 11.138593 16.797279 12.245984
2846 2 9.769997 16.215499 11.613236
2847 5 10.155058 16.853483 12.29824
2848 2 13.426085 44.631932 15.232392
2849 2 14.161714 45.234086 16.539357
2850 5 13.332216 44.759288 16.206148
2851 2 17.519548 7.976022 6.718933
2852 2 16.28678 8.934961 7.134402
2853 5 16.832195 8.584238 6.3572
2854 2 24.812948 26.383163 15.851262
2855 2 24.1667 27.547462 16.76705
2856 5 24.067238 26.586778 16.464196
2857 2 16.888159 18.33431 7.97951
2858 2 16.023544 17.918217 6.679048
2859 5 16.315473 18.693294 7.260906
2860 2 33.057182 35.910343 5.367922
2861 2 32.104008 34.783343 4.709722
2862 5 32.713859 35.565995 4.50956
2863 2 4.061541 49.650102 9.871837
2864 2 5.660158 49.878372 9.936755
2865 5 4.898446 49.290168 10.250345
2866 2 27.508882 3.854974 16.78081
2867 2 26.814746 3.200117 15.476497
2868 5 27.134318 4.065618 15.892799
2869 2 11.857244 31.827988 5.398187
2870 2 11.251393 33.064952 4.552751
2871 5 11.216515 32.062115 4.685528
2872 2 13.834932 54.595227 1.51409
2873 2 15.153194 55.36094 2.050528
2874 5 14.6187 55.120186 1.225373
2875 2 6.922741 44.021936 4.359972
2876 2 5.708302 44.442511 5.339844
2877 5 6.571821 43.918296 5.27613
2878 2 24.709006 31.992167 3.533747
2879 2 23.640158 30.990317 4.216211
2880 5 23.779466 31.666771 3.476258
2881 2 20.280769 26.599182 3.92186
2882 2 20.225778 26.530266 5.53559
2883 5 19.695852 26.382067 4.686035
2884 2 5.715879 46.428007 1.002688
2885 2 6.228997 46.644614 2.519819
2886 5 5.972966 47.115911 1.661417
2887 2 5.532878 9.376658 3.454339
2888 2 6.739024 10.294526 4.015256
2889 5 6.416961 9.749726 3.225322
2890 2 24.941299 12.715002 8.545176
2891 2 23.811059 12.71629 9.700361
2892 5 24.803726 12.794852 9.518792
2893 2 3.585466 9.771687 9.559132
2894 2 3.524947 10.579279 8.160551
2895 5 3.877032 10.599865 9.109308
2896 2 37.075316 34.637656 9.864698
2897 2 35.581553 34.033476 9.740072
2898 5 36.562589 33.845754 9.576196
2899 2 4.119266 3.647613 14.147243
2900 2 5.631736 4.114485 14.473375
2901 5 4.818219 3.639299 14.843395
2902 2 29.702888 20.611323 4.266481
2903 2 28.182388 21.089568 4.533418
2904 5 28.795106 20.286041 4.4747
2905 2 11.717082 26.678958 9.864095
2906 2 12.251499 25.547884 8.840882
2907 5 11.609739 25.734209 9.601115
2908 2 27.315514 23.695657 5.307197
2909 2 26.685348 24.379171 6.629163
2910 5 26.986229 24.548611 5.677697
2911 2 21.190304 6.532212 5.590607
2912 2 21.754987 7.640524 4.558777
2913 5 22.009164 6.856203 5.14594
2914 2 10.317876 61.290539 14.09201
2915 2 11.091717 61.352704 12.674547
2916 5 10.473806 61.855845 13.298696
2917 2 11.758195 11.753479 4.924502
2918 2 11.890015 11.476531 3.337739
2919 5 11.288456 11.847872 4.062142
2920 2 26.072718 33.254482 10.020963
2921 2 26.737998 32.856311 11.438974
2922 5 26.889601 33.346356 10.566392
2923 2 37.825298 39.566753 11.627698
2924 2 36.971522 39.949408 12.945476
2925 5 37.510729 39.220129 12.496104
2926 2 11.415238 21.155271 4.344517
2927 2 12.663419 21.064523 5.367113
2928 5 11.880972 21.634037 5.070537
2929 2 18.115585 7.999415 15.847216
2930 2 16.509 8.077666 16.004238
2931 5 17.304478 8.430353 15.487176
2932 2 34.365592 9.313526 5.088785
2933 2 33.84661 8.063852 4.205118
2934 5 33.663738 9.026847 4.457558
2935 2 29.357929 32.162841 7.501471
2936 2 30.791003 32.477348 8.179173
2937 5 29.798523 32.385681 8.355549
2938 2 31.110576 45.686618 8.303885
2939 2 30.664171 45.496882 6.762256
2940 5 30.398431 45.326407 7.723946
2941 2 13.48454 50.578245 3.081111
2942 2 14.916147 49.828843 3.109262
2943 5 14.318038 50.442915 2.571016
2944 2 15.819895 3.32092 3.09767
2945 2 15.845132 3.522423 1.494343
2946 5 16.359491 3.16066 2.287495
2947 2 13.233395 22.673965 10.707793
2948 2 13.428048 23.865487 9.633418
2949 5 12.746342 23.285541 10.106141
2950 2 16.412725 19.974693 9.369033
2951 2 14.898003 19.805154 8.83166
2952 5 15.649929 20.465936 8.981663
2953 2 31.321478 13.037268 14.972086
2954 2 32.751849 13.636678 14.517509
2955 5 32.219917 13.278374 15.300576
2956 2 21.901589 14.773217 15.081906
2957 2 20.922542 14.522064 16.342971
2958 5 21.868393 14.412645 15.999575
2959 2 12.103935 56.616376 9.632166
2960 2 12.090646 55.229526 10.461844
2961 5 11.520011 55.883872 9.941523
2962 2 19.079871 13.426728 3.27807
2963 2 18.181885 13.148995 4.59275
2964 5 19.024021 13.592946 4.248886
2965 2 13.241958 27.789837 3.908708
2966 2 12.029323 27.534088 2.871403
2967 5 13.004518 27.793232 2.95119
2968 2 33.54707 49.500923 7.070425
2969 2 32.063061 50.138254 7.128909
2970 5 32.614343 49.313955 7.331755
2971 2 33.403568 19.784393 12.662649
2972 2 31.885457 19.306574 12.381713
2973 5 32.858461 19.127931 12.167525
2974 2 7.151867 13.503919 10.08654
2975 2 6.565008 13.557554 8.581676
2976 5 6.321307 13.601072 9.563126
2977 2 19.208594 34.111558 8.204379
2978 2 18.808589 34.497154 6.686747
2979 5 18.533556 34.578879 7.65742
2980 2 25.450885 14.841701 9.039142
2981 2 24.347397 15.810667 9.713913
2982 5 24.552203 15.228217 8.911832
2983 2 11.084086 52.637505 1.865668
2984 2 11.685417 54.043521 2.38856
2985 5 11.820994 53.280699 1.737216
2986 2 31.208351 40.339663 11.501614
2987 2 32.388767 39.273381 11.787195
2988 5 32.187723 40.221282 11.494636
2989 2 12.656349 34.013613 13.187438
2990 2 13.175564 35.538811 13.314252
2991 5 12.35432 34.950757 13.24884
2992 2 23.858221 45.506818 8.103628
2993 2 23.88311 44.772532 9.543107
2994 5 23.768346 45.661935 9.073727
2995 2 36.3025 13.691879 5.76139
2996 2 37.757636 14.21581 6.230401
2997 5 36.815343 14.501383 5.995753
2998 2 28.927428 1.240235 8.658946
2999 2 30.445445 1.01996 8.150026
3000 5 29.472382 1.00183 7.871914
3001 2 5.571485 23.54535 5.261219
3002 2 5.762477 24.450003 6.586746
3003 5 5.228999 24.340888 5.733503
3004 2 13.682177 38.091835 12.018362
3005 2 14.215529 39.086975 10.86202
3006 5 13.46864 38.457451 11.127319
3007 2 18.016488 26.089329 11.202518
3008 2 17.785931 25.627733 12.734076
3009 5 18.478317 25.926611 12.058946
3010 2 5.389332 53.087271 2.261866
3011 2 5.54274 52.088866 1.0003
3012 5 6.0312 52.516109 1.777087
3013 2 30.608999 59.17852 13.785227
3014 2 29.903 58.038251 14.687028
3015 5 30.00085 59.036178 14.548853
3016 2 22.663111 50.65285 3.4929
3017 2 22.584051 50.93655 1.903825
3018 5 22.044091 50.87572 2.757799
3019 2 11.953688 41.184206 12.629218
3020 2 13.442082 41.696906 12.263547
3021 5 12.640055 41.183416 11.920607
3022 2 4.714996 35.486617 12.088581
3023 2 5.671993 34.374726 11.410532
3024 5 4.782228 34.527354 11.868298
3025 2 7.147509 43.988119 11.384659
3026 2 8.280396 44.820301 12.182115
3027 5 7.295209 44.780628 11.953293
3028 2 12.822571 36.017211 1.584043
3029 2 13.030104 35.588773 3.128474
3030 5 13.507114 35.811113 2.263862
3031 2 24.947865 6.512246 10.759905
3032 2 23.632054 6.522437 9.82159
3033 5 24.627101 6.338222 9.843358
3034 2 32.171749 5.529845 1.093328
3035 2 32.56952 5.898176 2.615828
3036 5 31.79706 5.758313 1.976867
3037 2 1.018801 13.781199 12.81586
3038 2 1.001014 15.253218 13.482748
3039 5 1.235291 14.729121 12.649103
3040 2 23.982219 54.320432 7.032893
3041 2 24.732025 54.718182 5.657581
3042 5 24.50336 53.953395 6.279947
3043 2 4.70564 1.127826 15.228536
3044 2 5.142932 1.732551 13.795016
3045 5 5.356341 1.031574 14.493311
3046 2 29.368278 36.719446 8.713056
3047 2 30.118913 37.775323 9.679269
3048 5 29.710591 36.850515 9.628957
3049 2 26.063204 18.460319 15.110465
3050 2 26.52064 18.884208 16.601426
3051 5 26.063667 19.205239 15.757245
3052 2 15.62798 35.592828 3.302715
3053 2 15.745706 35.752078 1.698759
3054 5 15.785132 35.093601 2.46647
3055 2 18.116096 58.277298 15.460613
3056 2 18.477648 58.448034 13.894719
3057 5 18.854599 58.229299 14.808279
3058 2 17.474881 11.143455 16.962118
3059 2 18.87538 11.194545 16.157202
3060 5 17.984571 11.65619 16.290887
3061 2 9.599966 33.740516 12.492675
3062 2 8.070465 34.138905 12.15532
3063 5 8.990053 34.505528 12.366205
3064 2 35.106745 30.357629 14.733027
3065 2 34.866262 30.961484 16.212697
3066 5 34.409346 30.577181 15.395344
3067 2 10.973668 39.550482 7.006516
3068 2 10.493243 38.130357 6.402916
3069 5 10.806162 38.606601 7.239457
3070 2 29.064878 33.705002 11.781809
3071 2 29.411536 34.041041 10.239473
3072 5 29.787756 33.688919 11.110677
3073 2 33.432504 46.469139 7.530048
3074 2 33.906139 47.437057 8.734499
3075 5 33.625024 47.408345 7.762553
3076 2 16.634807 60.176684 15.047679
3077 2 15.932585 58.738494 15.272161
3078 5 16.3893 59.335582 14.594352
3079 2 6.911607 20.916951 3.339133
3080 2 6.158881 21.153452 1.928684
3081 5 7.054468 21.181371 2.399503
3082 2 22.476919 8.857106 13.943995
3083 2 23.786575 8.476782 14.811202
3084 5 23.158476 8.157817 14.084374
3085 2 25.282708 27.291285 13.901875
3086 2 24.072095 27.031933 12.863103
3087 5 24.312912 27.120499 13.842231
3088 2 13.093769 13.176319 2.630091
3089 2 13.45456 12.458223 1.227927
3090 5 13.324882 13.350926 1.687048
3091 2 36.423992 12.392103 16.977799
3092 2 37.716933 12.82874 16.112035
3093 5 37.171591 13.034646 16.93952
3094 2 18.80608 22.987524 4.275421
3095 2 17.952136 22.780647 2.919
3096 5 18.646255 22.36483 3.52713
3097 2 3.245099 46.73891 12.027473
3098 2 4.33266 47.243629 10.943792
3099 5 4.174514 47.053521 11.925309
3100 2 8.212007 18.927847 1.749978
3101 2 7.601656 18.33862 3.125543
3102 5 7.967215 18.09256 2.214309
3103 2 37.68231 17.74734 3.796503
3104 2 37.727149 18.037635 5.385721
3105 5 37.711142 17.311289 4.680957
3106 2 20.410463 49.211308 6.311526
3107 2 20.722882 47.857623 7.137256
3108 5 20.053679 48.318864 6.533971
3109 2 27.055529 53.819301 7.515563
3110 2 27.515774 54.211966 6.016936
3111 5 26.72416 54.140543 6.643652
3112 2 29.735204 34.467246 4.809978
3113 2 29.077939 33.120362 4.205162
3114 5 29.51353 33.52963 5.022038
3115 2 27.646672 10.303162 6.188776
3116 2 27.723166 8.691796 6.09109
3117 5 27.644128 9.546902 5.555298
3118 2 10.993517 32.94551 10.527721
3119 2 11.358782 32.477979 12.031015
3120 5 11.744234 32.721931 11.127444
3121 2 19.285602 24.802351 3.143682
3122 2 20.011813 24.92258 1.704912
3123 5 19.700078 24.276599 2.419095
3124 2 31.43316 38.911946 7.265428
3125 2 31.163855 39.477259 8.755325
3126 5 30.722958 39.114746 7.919429
3127 2 16.087898 45.337835 15.478342
3128 2 15.733719 44.799327 13.996296
3129 5 15.427253 45.403173 14.748609
3130 2 20.484436 46.831768 11.960784
3131 2 21.761042 46.319112 11.112634
3132 5 21.24861 47.137296 11.416797
3133 2 21.74876 35.90382 12.254273
3134 2 23.007336 35.294885 11.443667
3135 5 22.723873 35.984467 12.12825
3136 2 20.424956 7.099509 16.818268
3137 2 20.684847 5.563806 16.387027
3138 5 19.989211 6.296741 16.445547
3139 2 1.61389 43.932513 7.750577
3140 2 1.0001 42.957995 6.616791
3141 5 1.797541 43.527696 6.86988
3142 2 9.356213 47.51758 5.123253
3143 2 8.466636 48.811122 4.739457
3144 5 9.033363 48.060478 4.365452
3145 2 36.049798 23.380643 2.40516
3146 2 37.193936 23.552076 3.533634
3147 5 36.378321 23.017879 3.261726
3148 2 22.885894 31.343446 7.293399
3149 2 22.458499 31.60308 8.83022
3150 5 23.020606 31.02578 8.217613
3151 2 37.90164 20.484155 9.859776
3152 2 36.424667 20.863284 10.395226
3153 5 37.389181 20.722911 10.668238
3154 2 17.737054 61.595374 6.182361
3155 2 18.225663 62.160233 7.615571
3156 5 18.417387 62.158715 6.621707
3157 2 8.773254 20.007304 15.836282
3158 2 8.990088 19.575085 17.37838
3159 5 8.999844 20.353742 16.731754
3160 2 33.608584 52.02071 7.526402
3161 2 35.039742 52.332679 8.209306
3162 5 34.167187 52.742539 7.900778
3163 2 6.947484 32.928704 13.61042
3164 2 7.354273 32.10485 14.939962
3165 5 7.448509 32.989946 14.458037
3166 2 36.445978 7.990542 9.616197
3167 2 37.899188 8.421976 10.1765
3168 5 36.967562 8.128622 10.4421
3169 2 34.284469 1.082794 18.192857
3170 2 32.871001 1.000012 18.972055
3171 5 33.805524 1.387873 18.999559
3172 2 22.947638 25.11269 6.108981
3173 2 22.510321 25.89365 4.763339
3174 5 22.182395 25.534493 5.651032
3175 2 17.673337 25.996512 6.139444
3176 2 18.41119 25.124836 7.282969
3177 5 18.46681 25.967463 6.724926
3178 2 22.641874 62.15751 11.657785
3179 2 22.773186 61.376324 13.066472
3180 5 23.290909 61.763342 12.287559
3181 2 11.462696 36.443513 11.862414
3182 2 10.781612 35.114638 11.244264
3183 5 10.741329 35.785093 12.001492
3184 2 20.127462 38.803369 5.711489
3185 2 19.79121 37.895932 7.005857
3186 5 20.151704 38.790116 6.697627
3187 2 9.270214 2.823324 7.630841
3188 2 9.754653 1.617735 8.59197
3189 5 8.96496 2.191566 8.324334
3190 2 9.246726 42.971131 10.35591
3191 2 9.306073 42.631294 11.934797
3192 5 9.561783 43.308844 11.227643
3193 2 34.811645 51.083678 4.575255
3194 2 33.470178 51.384992 5.424709
3195 5 34.093859 50.656741 5.100364
3196 2 11.307672 51.698105 14.890179
3197 2 10.908917 51.791872 16.453541
3198 5 10.955615 52.305947 15.582866
3199 2 28.941631 6.583252 1.141917
3200 2 29.077005 5.88199 2.591676
3201 5 29.593427 6.24093 1.798582
3202 2 13.009068 39.618334 13.771788
3203 2 13.481742 40.397732 15.106334
3204 5 12.852484 39.693104 14.742933
3205 2 15.928151 25.506695 11.568923
3206 2 15.043662 24.23805 11.099759
3207 5 15.973237 24.638563 11.102506
3208 2 9.625495 28.687169 8.447621
3209 2 10.952519 28.832791 9.358498
3210 5 10.207013 29.34237 8.901248
3211 2 11.349845 49.276047 3.157331
3212 2 11.082317 48.805546 4.680142
3213 5 11.562356 48.57596 3.819108
3214 2 12.080973 50.172588 8.642695
3215 2 13.500491 50.915426 8.854957
3216 5 12.768214 50.713324 8.186039
3217 2 9.162509 7.120605 9.424609
3218 2 8.106928 7.826282 8.424778
3219 5 8.304689 7.606783 9.392889
3220 2 22.028348 20.43548 5.957257
3221 2 22.947366 19.543784 6.943247
3222 5 22.96174 20.198768 6.17168
3223 2 17.085603 34.196215 16.21159
3224 2 17.718992 34.735896 17.597035
3225 5 16.871873 34.406792 17.151382
3226 2 19.260969 42.501277 6.554688
3227 2 18.310753 41.510327 5.702043
3228 5 19.102734 42.13857 5.651009
3229 2 26.663274 12.056724 12.627016
3230 2 26.866864 13.65216 12.785236
3231 5 26.212009 12.889405 12.903122
3232 2 24.286219 22.355831 15.89829
3233 2 24.344195 20.754354 15.68899
3234 5 24.133713 21.636866 15.240215
3235 2 35.18202 34.16691 4.305457
3236 2 35.021201 34.535396 5.870785
3237 5 34.519042 34.303172 5.023179
3238 2 3.414474 56.655013 6.111033
3239 2 4.32337 55.782157 7.122925
3240 5 4.289654 56.209759 6.206112
3241 2 34.280894 15.897572 1.506887
3242 2 32.925193 16.620105 1.004972
3243 5 33.737429 16.715465 1.601383
3244 2 35.506651 2.439155 12.311152
3245 2 35.893025 3.808296 13.078006
3246 5 36.108889 3.220023 12.283107
3247 2 24.119766 24.125171 10.806175
3248 2 23.127132 23.489812 11.91202
3249 5 23.310375 23.57276 10.920017
3250 2 18.098046 34.526601 1.048408
3251 2 17.14649 33.251444 1.331978
3252 5 17.164875 34.209427 1.0057
3253 2 25.88515 31.507727 5.33048
3254 2 24.678407 32.071112 6.246049
3255 5 25.669766 31.868099 6.223214
3256 2 14.967946 44.961806 2.299013
3257 2 16.160805 43.875829 2.200847
3258 5 15.304245 44.200092 1.769934
3259 2 11.94677 45.558094 12.161739
3260 2 11.533228 45.342971 10.614289
3261 5 11.20413 45.65416 11.519486
3262 2 13.003104 6.222022 3.285572
3263 2 14.615907 6.308877 3.22883
3264 5 13.75925 6.844462 3.167069
3265 2 29.143392 39.240429 13.845814
3266 2 30.679726 39.157888 13.351081
3267 5 29.783286 38.688069 13.337222
3268 2 24.981799 2.889829 14.300361
3269 2 23.862044 2.53249 13.191148
3270 5 24.158126 3.221756 13.870689
3271 2 5.809354 16.312895 10.546442
3272 2 5.835674 17.641491 9.626639
3273 5 5.734224 17.296205 10.57269
3274 2 6.227259 14.632121 3.50471
3275 2 5.917182 13.147333 4.062522
3276 5 6.446485 13.994662 4.225
3277 2 21.807068 30.327397 5.66822
3278 2 21.884812 31.872265 5.199997
3279 5 21.25814 31.11623 5.445395
3280 2 16.431163 18.778896 4.694867
3281 2 17.153765 19.169955 3.303172
3282 5 16.277795 18.89117 3.726826
3283 2 11.808558 50.504195 1.272896
3284 2 12.993045 51.570058 1.003043
3285 5 12.754587 50.586362 1.005484
3286 2 34.009451 21.563476 16.774338
3287 2 33.421952 20.79909 18.071432
3288 5 34.032993 21.543673 17.760383
3289 2 7.070123 60.160935 9.361152
3290 2 7.287752 60.51476 7.799313
3291 5 7.132354 59.763986 8.460158
3292 2 16.893892 16.006021 8.749923
3293 2 16.223267 15.828555 7.290244
3294 5 16.131516 16.284604 8.189204
3295 2 37.141174 4.243532 3.689177
3296 2 36.93451 4.544017 5.263628
3297 5 37.364186 3.918731 4.593611
3298 2 32.378139 62.160766 13.764443
3299 2 31.585816 62.158166 15.173029
3300 5 32.461269 61.928811 14.719701
3301 2 8.031982 59.712173 3.353349
3302 2 7.860149 58.20764 2.78877
3303 5 7.844994 58.78163 3.622337
3304 2 35.076691 37.465314 10.636485
3305 2 35.929342 37.769448 11.975284
3306 5 35.661758 38.131673 11.068797
3307 2 13.260267 13.195284 5.636248
3308 2 13.730453 13.409331 7.167589
3309 5 13.045976 13.675385 6.471001
3310 2 4.52442 18.197168 12.695848
3311 2 3.451749 18.522479 11.531612
3312 5 3.902501 17.781134 12.052915
3313 2 7.496996 7.829969 1.619926
3314 2 6.457667 6.601378 1.470744
3315 5 6.56324 7.60516 1.394559
3316 2 32.742093 50.893171 11.677901
3317 2 34.14149 50.202398 11.257884
3318 5 33.703357 50.854325 11.896286
3319 2 31.554468 56.347945 7.791051
3320 2 30.151444 55.558697 7.647851
3321 5 31.003988 55.817476 7.167508
3322 2 24.343151 58.393949 17.502856
3323 2 23.766007 58.587739 18.999935
3324 5 23.6532 58.077578 18.133022
3325 2 27.35336 43.44027 11.948101
3326 2 27.439111 44.872854 11.204969
3327 5 26.866829 44.049591 11.343745
3328 2 9.026002 22.738951 14.875197
3329 2 7.640125 21.910118 14.940598
3330 5 8.614551 21.866058 14.670267
3331 2 5.039578 42.009019 9.128466
3332 2 4.429205 41.157348 10.358912
3333 5 5.256111 41.317056 9.797444
3334 2 19.508088 55.623168 10.334764
3335 2 19.475588 54.294066 9.415891
3336 5 20.018291 55.112044 9.662696
3337 2 37.179125 48.236717 9.573717
3338 2 36.929661 48.975977 10.989047
3339 5 37.637294 48.621142 10.358273
3340 2 20.161033 24.540842 11.752228
3341 2 21.042507 23.54807 10.830651
3342 5 20.984853 23.99838 11.735319
3343 2 26.90009 4.402398 4.257919
3344 2 26.74777 3.531732 5.610929
3345 5 27.325399 3.692946 4.795525
3346 2 15.919153 61.414752 2.362662
3347 2 16.676062 60.982606 1.001694
3348 5 16.7822 61.102168 2.001177
3349 2 19.083866 1.000205 13.365294
3350 2 18.803263 0.999681 11.773704
3351 5 19.452877 1.28466 12.495727
3352 2 9.132474 20.828364 9.731947
3353 2 7.718032 20.084636 9.973023
3354 5 8.292215 20.561442 9.289286
3355 2 1.006025 41.978253 8.583548
3356 2 1.271332 41.334527 10.042015
3357 5 1.708617 41.78685 9.2491
3358 2 30.930258 25.43924 10.331072
3359 2 32.394947 25.710506 9.704179
3360 5 31.885887 25.212327 10.423347
3361 2 1.129488 50.592373 13.125997
3362 2 1.027263 48.987486 12.965421
3363 5 1.007062 49.752164 13.628284
3364 2 29.2446 23.158165 6.219698
3365 2 29.584943 22.775666 4.686806
3366 5 29.619988 22.449999 5.644533
3367 2 13.926021 59.045399 12.893157
3368 2 15.084038 57.983897 13.27277
3369 5 14.887601 58.851071 12.789086
3370 2 15.76067 28.299037 5.329725
3371 2 14.243853 28.08259 5.843838
3372 5 14.895155 28.754657 5.458275
3373 2 21.18757 56.45563 18.925795
3374 2 19.906166 57.396427 18.634586
3375 5 20.20495 56.5013 19.000651
3376 2 25.459908 17.886241 6.73874
3377 2 25.233873 17.182733 8.176057
3378 5 25.916844 17.622908 7.572465
3379 2 11.358242 38.248456 1.455609
3380 2 12.863561 38.817885 1.602775
3381 5 12.149159 38.538664 0.942326
3382 2 9.24842 25.927267 1.319987
3383 2 9.896745 26.971312 2.36953
3384 5 9.686552 25.995595 2.201237
3385 2 24.517795 20.889361 4.015015
3386 2 24.005113 21.232891 2.521348
3387 5 23.8925 21.454664 3.502502
3388 2 37.684695 12.294702 4.778695
3389 2 37.605554 12.026158 6.370397
3390 5 37.941818 11.659915 5.488739
3391 2 35.096526 17.643187 8.873256
3392 2 34.442278 17.545044 7.398732
3393 5 34.551592 18.13483 8.214041
3394 2 8.199406 27.025859 9.572633
3395 2 9.653261 26.560592 9.041852
3396 5 9.159558 27.016116 9.799006
3397 2 33.729737 53.345564 17.805647
3398 2 32.779337 53.878027 18.999431
3399 5 32.817786 53.288474 18.177558
3400 2 24.358089 19.592533 9.97235
3401 2 23.701131 18.612832 8.867593
3402 5 24.207255 18.64483 9.743574
3403 2 25.565908 42.692298 7.162577
3404 2 25.647422 43.920741 8.209563
3405 5 25.922394 43.603496 7.288545
3406 2 10.337826 9.048154 11.977579
3407 2 10.49142 9.561718 13.502229
3408 5 10.01434 9.71986 12.623643
3409 2 36.741983 18.968003 2.227144
3410 2 37.034821 19.834124 3.559801
3411 5 36.566697 19.835808 2.662369
3412 2 19.653987 17.758534 14.08423
3413 2 19.564667 17.090712 15.55322
3414 5 19.82164 16.927048 14.587971
3415 2 37.901873 17.658894 12.238288
3416 2 36.881191 16.570778 12.859662
3417 5 37.821961 16.940834 12.910028
3418 2 35.358825 32.919212 11.623731
3419 2 34.815473 32.840703 13.143765
3420 5 35.162032 33.461938 12.423701
3421 2 28.487685 21.940703 11.016119
3422 2 28.80664 23.206018 11.969608
3423 5 28.761372 22.888481 11.009583
3424 2 17.127536 5.710921 8.491807
3425 2 15.66255 5.421122 9.109648
3426 5 16.483275 6.009732 9.176548
3427 2 26.901314 34.943264 12.120441
3428 2 26.717757 34.351291 13.613012
3429 5 27.394894 34.652487 12.923596
3430 2 3.134024 12.844261 4.387073
3431 2 4.274904 11.700855 4.333116
3432 5 3.393936 12.005053 3.938291
3433 2 20.21666 36.657757 5.238085
3434 2 18.705341 36.379833 4.737517
3435 5 19.501883 35.978178 5.215765
3436 2 27.306601 39.003792 9.015148
3437 2 27.708541 37.72579 9.919058
3438 5 28.054545 38.406935 9.255092
3439 2 9.228953 61.240469 8.615541
3440 2 9.870761 60.107727 7.658006
3441 5 9.353748 60.267209 8.513453
3442 2 27.438931 21.970347 6.663408
3443 2 28.121919 20.505662 6.652303
3444 5 28.170075 21.43422 7.052288
3445 2 19.511453 17.809731 2.660857
3446 2 19.04447 18.135791 4.173308
3447 5 18.775816 17.687174 3.30665
3448 2 33.370526 16.98697 12.292688
3449 2 34.725126 16.634827 11.484635
3450 5 34.055162 16.289177 12.160062
3451 2 32.409611 46.455046 4.829669
3452 2 31.864606 47.284897 6.104899
3453 5 31.591842 46.804328 5.256853
3454 2 28.802489 19.816032 12.060378
3455 2 29.773383 19.013954 13.073261
3456 5 29.731769 19.75593 12.386044
3457 2 24.097808 37.529045 8.547651
3458 2 24.168588 37.731979 6.945869
3459 5 24.414413 38.138654 7.839577
3460 2 23.95001 14.245852 11.276638
3461 2 24.910743 15.368965 11.930475
3462 5 24.834909 14.389039 11.688563
3463 2 36.732153 42.937284 7.337329
3464 2 37.899529 43.425545 8.34268
3465 5 37.253307 43.724587 7.623306
3466 2 18.792036 33.604453 11.366791
3467 2 19.094367 33.601101 12.954393
3468 5 19.252571 34.097465 12.086567
3469 2 8.247108 53.098849 3.573603
3470 2 8.219232 52.946783 1.964878
3471 5 7.785445 53.403993 2.756911
3472 2 18.538206 54.522896 15.432359
3473 2 18.107155 56.079266 15.370685
3474 5 18.819474 55.43351 15.687116
3475 2 17.224226 49.159188 1.001139
3476 2 18.798617 48.794237 0.999694
3477 5 17.969495 48.863841 1.576097
3478 2 20.207413 32.130682 3.789211
3479 2 19.821406 32.767059 5.223756
3480 5 19.764315 32.898651 4.221782
3481 2 25.098631 52.671661 7.967585
3482 2 26.068988 52.876607 9.243634
3483 5 25.298494 53.275083 8.722017
3484 2 18.366386 6.267715 11.405377
3485 2 19.030354 7.090217 10.182866
3486 5 18.15585 6.809277 10.608122
3487 2 32.045798 24.067411 5.173829
3488 2 33.301898 25.073992 5.029254
3489 5 32.990448 24.196888 5.427015
3490 2 22.498309 45.729525 13.188359
3491 2 23.616765 46.774217 13.70756
3492 5 23.31084 46.219438 12.918157
3493 2 33.265524 57.37692 6.869017
3494 2 33.765807 57.506668 8.400284
3495 5 34.067833 57.474287 7.434748
3496 2 14.919942 15.021852 12.630451
3497 2 14.357078 14.141369 11.397638
3498 5 14.155659 14.474025 12.332142
3499 2 15.108466 32.526334 1.00507
3500 2 15.037893 30.91176 0.99696
3501 5 14.906224 31.739399 1.56459
3502 2 1.736928 14.519994 9.354364
3503 2 1.145721 13.708665 10.620901
3504 5 1.000264 13.931349 9.644283
3505 2 16.552423 20.225594 16.388807
3506 2 15.902774 20.747868 17.773395
3507 5 15.69868 20.456983 16.825629
3508 2 7.467171 37.244361 3.029157
3509 2 7.672595 38.750275 3.578629
3510 5 7.100001 38.159147 2.989366
3511 2 32.487889 15.756997 5.15719
3512 2 31.125791 15.172774 5.801602
3513 5 31.503875 15.793275 5.096934
3514 2 8.734533 46.285059 14.388256
3515 2 9.799219 46.049201 13.195482
3516 5 9.30877 45.605637 13.961796
3517 2 11.098432 36.613055 2.89123
3518 2 12.267677 37.62983 3.350502
3519 5 11.411707 37.173747 3.640039
3520 2 6.13388 2.976671 8.288381
3521 2 6.145303 1.479044 8.895734
3522 5 5.63355 2.351792 8.864946
3523 2 15.80286 11.146844 13.76416
3524 2 16.230145 12.059381 15.027726
3525 5 15.456486 11.777552 14.439041
3526 2 24.139001 51.837096 5.802786
3527 2 25.383539 51.340012 4.899499
3528 5 24.766187 52.117952 5.094981
3529 2 12.923038 50.60162 5.99405
3530 2 11.973238 50.818659 4.704604
3531 5 12.696974 50.235974 5.106115
3532 2 31.519441 27.544099 10.550525
3533 2 30.573782 28.067755 9.349105
3534 5 30.995428 28.317952 10.234623
3535 2 32.57727 24.642007 18.699724
3536 2 32.29239 26.177836 18.285031
3537 5 32.748065 25.577852 18.96098
3538 2 6.656472 61.583362 5.71945
3539 2 7.470319 60.213381 5.449823
3540 5 6.78918 60.856258 5.066045
3541 2 3.588418 31.588738 4.047822
3542 2 3.171314 30.336314 3.115431
3543 5 3.139553 30.710278 4.055468
3544 2 37.256035 56.511688 5.503349
3545 2 36.26195 56.812526 4.26513
3546 5 36.657991 56.083998 4.845584
3547 2 5.148586 16.777904 1.998447
3548 2 5.787492 17.135248 3.43928
3549 5 5.700468 17.4402 2.478052
3550 2 24.802279 47.363211 2.35079
3551 2 24.566389 46.297397 3.54255
3552 5 25.034094 47.158049 3.287487
3553 2 10.816095 57.396077 5.769736
3554 2 10.511278 56.54739 4.428576
3555 5 10.919347 56.507408 5.353999
3556 2 14.001785 24.086313 6.81807
3557 2 15.398221 24.887247 6.675348
3558 5 14.862058 24.264874 7.26671
3559 2 22.55677 25.640779 10.433542
3560 2 22.647111 24.679238 9.137713
3561 5 22.413671 25.610636 9.457917
3562 2 11.214619 31.862785 8.206966
3563 2 9.683252 32.26126 8.535644
3564 5 10.327382 31.488809 8.421869
3565 2 32.998248 41.070738 8.388286
3566 2 33.859806 40.504203 7.143837
3567 5 32.974646 40.439527 7.630495
3568 2 16.513091 21.604179 4.285623
3569 2 17.633802 20.609474 4.890986
3570 5 17.145827 21.484819 5.033038
3571 2 26.830898 1.539551 11.629641
3572 2 27.31196 1.670806 10.092356
3573 5 27.540069 1.276574 10.996277
3574 2 2.878058 10.196312 14.971617
3575 2 3.752569 9.150702 14.103386
3576 5 3.575698 10.132068 14.277066
3577 2 15.522388 60.130811 10.544788
3578 2 14.938926 60.321594 9.049773
3579 5 14.688829 60.227244 10.026029
3580 2 2.504584 40.237624 7.691014
3581 2 2.966341 39.981931 9.218527
3582 5 3.20894 40.442748 8.350587
3583 2 34.091295 42.677434 12.852593
3584 2 35.390298 43.424617 13.457741
3585 5 34.534739 42.938244 13.694357
3586 2 20.409074 54.935718 12.941047
3587 2 18.865297 55.172659 13.356388
3588 5 19.549169 54.475662 13.08985
3589 2 28.026337 11.952142 15.389992
3590 2 27.556838 10.887929 14.267978
3591 5 27.342453 11.777452 14.700778
3592 2 5.166916 6.47561 9.463634
3593 2 6.711316 6.148941 9.810059
3594 5 5.794054 6.309405 10.206806
3595 2 36.578282 48.801887 2.546635
3596 2 37.900213 48.694544 3.470145
3597 5 37.277069 48.180244 2.860461
3598 2 16.244933 16.976597 13.666392
3599 2 17.760051 16.47362 13.918045
3600 5 17.029741 16.574114 13.224448
3601 2 5.299249 43.567145 13.434645
3602 2 4.396657 43.41372 14.766443
3603 5 4.442666 43.215432 13.774933
3604 2 28.397084 51.983986 11.825812
3605 2 28.304401 53.567418 11.515896
3606 5 28.672864 52.872778 12.153264
3607 2 5.843539 52.946029 15.514221
3608 2 4.830773 52.138958 16.48109
3609 5 5.786614 52.196467 16.153084
3610 2 5.850124 11.897955 11.086456
3611 2 6.968897 12.028164 12.245459
3612 5 6.780238 11.665845 11.31936
3613 2 20.641704 59.077241 13.669315
3614 2 21.302312 59.218189 15.13752
3615 5 20.832313 59.718943 14.393966
3616 2 28.188412 25.347384 4.020198
3617 2 28.570649 24.454078 2.728767
3618 5 28.630191 24.511817 3.737553
3619 2 19.227801 21.242581 13.970254
3620 2 19.669233 19.86992 14.70021
3621 5 20.002721 20.753135 14.335184
3622 2 4.022538 44.383633 7.99698
3623 2 3.745415 45.429119 6.796123
3624 5 4.324631 45.236367 7.603516
3625 2 37.367401 47.762156 7.001993
3626 2 37.897846 49.280835 6.846632
3627 5 37.864817 48.370431 6.405496
3628 2 19.887343 31.252531 13.612823
3629 2 19.209359 31.323291 15.078165
3630 5 19.154629 30.890011 14.165038
3631 2 17.147215 30.653075 10.400849
3632 2 16.764405 29.376502 9.486675
3633 5 17.138362 29.666783 10.381337
3634 2 11.021171 54.025658 6.508189
3635 2 11.203325 54.351556 4.935769
3636 5 11.611656 54.469616 5.854385
3637 2 22.619299 12.579057 15.044084
3638 2 21.261302 12.673566 14.172988
3639 5 21.664195 12.332177 15.036503
3640 2 15.78758 9.521535 12.282164
3641 2 14.894618 8.939212 11.067497
3642 5 14.859871 9.382676 11.976706
3643 2 23.989811 9.864228 6.438071
3644 2 25.523061 9.790327 6.943618
3645 5 24.663812 10.322991 6.993489
3646 2 3.03932 6.993599 11.055952
3647 2 3.502519 7.90535 12.307372
3648 5 3.563831 7.791632 11.303462
3649 2 8.759073 38.321165 7.990267
3650 2 8.96279 38.301987 9.593398
3651 5 8.282011 38.397151 8.850424
3652 2 30.307606 22.492637 0.98654
3653 2 30.226988 22.679651 2.589794
3654 5 29.8883 23.027481 1.701632
3655 2 9.457792 57.033845 12.960459
3656 2 8.099149 57.294041 12.124826
3657 5 9.022526 56.881031 12.088437
3658 2 5.980917 19.608058 8.65701
3659 2 6.585479 20.502184 7.454122
3660 5 6.100397 20.535233 8.341889
3661 2 9.130498 30.225811 2.985956
3662 2 9.431527 29.806184 1.454555
3663 5 9.224595 29.452852 2.380224
3664 2 29.780743 13.79754 4.738944
3665 2 28.174206 13.676554 4.61129
3666 5 28.945423 14.322203 4.724821
3667 2 35.561769 14.11477 1.620031
3668 2 36.345867 14.454641 2.991735
3669 5 35.435119 14.28706 2.583103
3670 2 4.78738 32.509807 10.648271
3671 2 3.768924 32.560686 9.394455
3672 5 4.258554 33.119976 10.081467
3673 2 32.786352 32.551219 2.557016
3674 2 32.364006 32.449835 1.00034
3675 5 32.162683 32.90718 1.880585
3676 2 34.910279 54.632104 13.728378
3677 2 35.182962 54.355606 15.297163
3678 5 34.599643 54.855086 14.637781
3679 2 37.899171 31.934668 4.310965
3680 2 36.892702 32.982462 5.018808
3681 5 37.791266 32.522877 5.095565
3682 2 37.855505 26.993759 10.159314
3683 2 37.82837 26.998174 8.543412
3684 5 37.901123 26.410965 9.364643
3685 2 30.206235 18.421126 3.804612
3686 2 29.575143 17.692751 5.101951
3687 5 29.807279 17.577121 4.123549
3688 2 7.385417 14.354501 15.761803
3689 2 7.862073 12.819169 15.596131
3690 5 8.126006 13.730306 15.949253
3691 2 2.210765 9.478425 4.417367
3692 2 2.135459 9.563646 2.805237
3693 5 2.443057 10.04265 3.642176
3694 2 3.654503 14.803134 5.341334
3695 2 4.1034 15.105634 3.818546
3696 5 4.367725 14.642604 4.678931
3697 2 35.542692 61.54786 4.255805
3698 2 35.896318 60.888109 5.688136
3699 5 35.961232 61.73023 5.130332
3700 2 31.924562 17.71753 2.627886
3701 2 32.157162 16.168656 3.026363
3702 5 31.456831 16.87837 2.852096
3703 2 23.879259 62.134817 16.455095
3704 2 23.789904 61.402339 15.017254
3705 5 23.416142 62.152925 15.584219
3706 2 4.252551 39.276511 15.903458
3707 2 5.431192 38.632382 15.004682
3708 5 5.195386 38.986837 15.922987
3709 2 9.818044 40.309302 3.880458
3710 2 9.256437 39.327686 5.034981
3711 5 9.715006 39.361299 4.133254
3712 2 13.32963 53.791168 9.350227
3713 2 12.180785 54.434341 8.413008
3714 5 13.172047 54.432957 8.617762
3715 2 37.899629 54.656727 14.325509
3716 2 37.006364 53.339 14.604018
3717 5 37.886499 53.795805 14.807039
3718 2 1.239317 30.198288 5.799235
3719 2 1.229116 30.714155 7.330794
3720 5 1.001105 30.962141 6.376309
3721 2 4.589916 18.605912 15.70425
3722 2 4.423882 20.170811 15.336258
3723 5 3.955919 19.361478 15.724224
3724 2 34.094338 7.847565 14.561733
3725 2 34.098142 9.440809 14.832754
3726 5 34.047363 8.726907 14.117008
3727 2 32.397328 19.400727 3.958959
3728 2 31.393475 19.575031 5.213468
3729 5 31.967657 20.069938 4.542715
3730 2 9.770629 1.000007 17.378991
3731 2 9.242558 2.188556 16.419623
3732 5 9.357637 1.186365 16.50267
3733 2 34.824894 12.271709 7.588761
3734 2 35.236142 11.443486 8.914211
3735 5 35.591178 12.002553 8.148756
3736 2 20.72568 5.901132 3.53525
3737 2 20.737068 6.108793 1.932551
3738 5 20.825158 5.427273 2.675719
3739 2 7.342323 49.150406 6.711285
3740 2 7.325656 47.720534 7.464335
3741 5 7.16965 48.71403 7.579035
3742 2 36.471699 37.736036 4.648904
3743 2 37.025708 37.698289 3.13116
3744 5 37.292894 37.664807 4.106874
3745 2 30.789574 36.540236 4.950185
3746 2 30.491455 37.030107 6.46116
3747 5 30.066116 36.723503 5.595362
3748 2 3.93406 30.136965 7.343414
3749 2 3.349231 29.591291 5.939095
3750 5 3.277939 30.326217 6.631431
3751 2 14.396106 41.42958 2.524157
3752 2 15.028785 41.101398 1.073671
3753 5 14.465581 40.732547 1.8295
3754 2 29.999243 32.296411 13.202501
3755 2 30.471231 33.811753 13.507234
3756 5 30.792798 32.868748 13.328726
3757 2 15.508284 32.60581 10.936823
3758 2 14.215791 32.978951 10.04121
3759 5 15.193468 33.185119 10.202982
3760 2 4.577176 61.836069 4.424704
3761 2 3.206475 61.668997 5.264442
3762 5 3.700355 61.38396 4.428162
3763 2 20.933867 46.950906 4.972366
3764 2 21.868995 45.806114 4.319004
3765 5 20.951766 46.003188 4.698977
3766 2 36.703577 45.176328 3.80799
3767 2 36.20149 45.548938 2.3177
3768 5 36.704871 45.890012 3.126899
3769 2 29.461122 9.371014 2.059471
3770 2 28.443756 9.187413 3.301708
3771 5 29.309399 8.861606 2.890563
3772 2 5.553343 21.532193 10.872132
3773 2 4.994207 20.038329 11.132197
3774 5 5.677641 20.585463 10.624172
3775 2 22.530317 11.939508 6.767978
3776 2 23.079625 13.455078 6.882895
3777 5 23.200352 12.507359 7.217233
3778 2 9.747667 12.149093 13.891206
3779 2 11.169489 12.211873 13.125455
3780 5 10.714399 11.985901 14.000873
3781 2 14.814473 40.925074 6.291161
3782 2 15.045475 41.200675 4.715541
3783 5 15.462483 40.818591 5.554971
3784 2 29.888259 52.135803 10.09559
3785 2 29.112477 53.255447 9.225846
3786 5 29.583655 52.360564 9.184585
3787 2 6.660578 54.873256 10.359191
3788 2 7.592715 54.414915 9.121072
3789 5 6.683366 54.306344 9.552146
3790 2 1.510474 56.87352 13.672559
3791 2 1.00174 56.996182 15.201624
3792 5 1.552797 56.441779 14.558583
3793 2 3.410331 48.185734 13.670951
3794 2 4.543734 49.006696 12.862671
3795 5 4.203852 48.760893 13.78386
3796 2 6.665091 27.621782 5.414317
3797 2 5.979755 27.547534 3.952573
3798 5 5.924819 27.212963 4.906287
3799 2 37.715662 30.78066 14.289945
3800 2 37.444621 30.439162 12.733728
3801 5 37.011635 30.536517 13.643437
3802 2 19.869963 54.888817 17.542253
3803 2 20.007618 53.364832 17.022239
3804 5 19.370735 54.047874 17.412573
3805 2 23.835482 32.45999 14.165348
3806 2 25.382967 32.819049 14.462438
3807 5 24.431072 33.156283 14.53097
3808 2 19.099631 45.687275 14.718768
3809 2 17.879824 45.232005 13.761327
3810 5 18.327395 45.076607 14.655786
3811 2 26.199106 57.155692 16.707262
3812 2 25.238483 57.087181 15.409416
3813 5 25.512938 56.607792 16.257583
3814 2 36.540543 46.114715 5.801254
3815 2 35.707365 46.016266 7.182564
3816 5 36.224926 45.486086 6.49295
3817 2 4.002805 40.973107 12.79077
3818 2 5.328045 40.289521 12.167599
3819 5 4.334272 40.172144 12.319795
3820 2 34.229569 24.62371 14.13113
3821 2 34.352346 23.987013 12.65078
3822 5 34.527863 24.81231 13.209891
3823 2 31.726842 2.974319 13.272527
3824 2 31.002178 4.288687 12.673198
3825 5 31.350894 3.365402 12.448544
3826 2 8.851004 55.834038 5.689887
3827 2 9.661413 55.66166 7.077482
3828 5 9.077543 56.286946 6.536519
3829 2 5.933512 45.768691 15.445893
3830 2 4.750804 45.548571 14.366706
3831 5 5.168478 46.211318 15.007676
3832 2 29.269081 44.634439 14.87398
3833 2 27.929906 44.373268 14.007784
3834 5 28.317602 44.881923 14.792316
3835 2 11.75525 10.666498 16.020299
3836 2 10.480908 10.687096 17.014041
3837 5 11.150163 10.09018 16.544663
3838 2 19.266164 6.949299 7.868167
3839 2 19.974114 5.522885 7.592405
3840 5 20.068739 6.524628 7.482476
3841 2 34.420228 41.719879 5.395665
3842 2 33.768803 42.639837 4.237556
3843 5 34.288904 41.790985 4.42051
3844 2 5.572632 40.117855 5.284863
3845 2 7.16658 39.887683 5.419936
3846 5 6.397876 40.496646 5.670506
3847 2 15.132491 48.117891 13.576583
3848 2 16.500437 47.257305 13.572908
3849 5 15.493242 47.203995 13.48779
3850 2 35.854752 22.940828 15.088802
3851 2 35.829888 21.396322 15.563965
3852 5 35.632516 22.025367 14.795932
3853 2 37.848318 13.102363 11.951023
3854 2 37.902046 12.620352 10.409377
3855 5 37.429756 12.495117 11.295822
3856 2 13.395771 14.437139 14.393792
3857 2 14.247102 14.241806 15.753562
3858 5 13.403552 14.638827 15.359449
3859 2 26.877633 6.60684 1.908213
3860 2 25.484505 6.513011 1.094404
3861 5 26.490763 6.570697 1.001429
3862 2 26.284753 12.405507 1.733675
3863 2 26.198572 13.024198 3.224209
3864 5 25.823761 13.080793 2.285677
3865 2 5.857109 26.285398 10.013307
3866 2 5.435976 25.502792 8.663466
3867 5 5.557803 26.416119 9.082415
3868 2 31.071931 21.533586 13.691851
3869 2 30.708732 20.681597 15.016274
3870 5 30.925616 20.618308 14.029621
3871 2 6.161276 24.19138 10.61862
3872 2 7.371454 23.404726 9.891612
3873 5 6.373199 23.407088 10.058972
3874 2 27.213547 28.199026 14.464
3875 2 27.366124 27.203631 13.199957
3876 5 27.565959 28.134025 13.544863
3877 2 34.199913 46.682919 3.570476
3878 2 34.558822 46.80586 5.141452
3879 5 34.929157 46.580147 4.226885
3880 2 32.520375 49.865386 9.645179
3881 2 33.232927 51.314274 9.575272
3882 5 33.196962 50.392784 9.158032
3883 2 33.87209 61.307968 6.43961
3884 2 32.788639 60.11962 6.2788
3885 5 33.622585 60.533571 5.881678
3886 2 19.482979 29.994643 4.778614
3887 2 19.772266 30.059377 3.189898
3888 5 19.930725 29.525569 4.03516
3889 2 33.110483 55.862023 12.868541
3890 2 33.439429 55.873012 11.286274
3891 5 33.846261 55.830566 12.212132
3892 2 33.662621 24.491774 2.940138
3893 2 33.092097 25.540185 1.850536
3894 5 33.360084 25.422988 2.819543
3895 2 3.621307 51.549102 8.524799
3896 2 4.904933 51.529426 7.543058
3897 5 4.359083 50.982303 8.196688
3898 2 7.157213 58.537166 14.897775
3899 2 5.673928 58.915072 15.416379
3900 5 6.568992 59.293384 15.133065
3901 2 15.982599 1.432127 11.176145
3902 2 16.718466 1.877578 12.544344
3903 5 15.931556 2.060841 11.93466
3904 2 29.4943 11.234986 9.283718
3905 2 29.081165 10.829192 7.774895
3906 5 28.759416 11.271518 8.626571
3907 2 35.245202 5.2343 9.631977
3908 2 35.114605 5.049807 11.232227
3909 5 35.202147 4.55999 10.350783
3910 2 13.550305 24.466604 12.69867
3911 2 14.265075 25.806628 13.251243
3912 5 13.427618 25.2401 13.298573
3913 2 33.493965 16.12077 8.779678
3914 2 33.198531 17.151192 9.989159
3915 5 32.838412 16.773827 9.121727
3916 2 3.830573 49.920472 16.792734
3917 2 4.729133 48.888096 17.652202
3918 5 4.597826 49.302748 16.738228
3919 2 27.663216 18.849159 13.668615
3920 2 28.19695 19.010347 15.185534
3921 5 28.137194 18.380185 14.395691
3922 2 10.852231 4.436913 3.990966
3923 2 10.587108 5.050309 2.519453
3924 5 11.058308 5.201378 3.402445
3925 2 4.341874 40.796906 1.943278
3926 2 3.770484 41.981695 1.004299
3927 5 4.013235 40.99954 1.035442
3928 2 1.001613 10.820202 11.987705
3929 2 1.948208 11.191694 13.243828
3930 5 1.040395 11.343915 12.82284
3931 2 3.963248 25.765823 12.77337
3932 2 2.621959 25.88251 11.879377
3933 5 3.533915 25.44812 11.943931
3934 2 4.112742 20.891261 2.69404
3935 2 4.245487 20.384042 1.165315
3936 5 3.769834 20.231522 2.045666
3937 2 25.679496 58.908006 3.172514
3938 2 26.312874 58.642061 4.635389
3939 5 26.526119 58.894887 3.678763
3940 2 35.968136 5.491709 16.277927
3941 2 35.536545 5.336502 14.728238
3942 5 35.323478 5.804745 15.599948
3943 2 29.353243 27.973138 3.531655
3944 2 28.591111 27.038692 2.455616
3945 5 29.298073 27.053125 3.179856
3946 2 2.485326 31.474337 16.147948
3947 2 2.072918 29.960979 15.758635
3948 5 2.290777 30.584113 16.525948
3949 2 4.487732 37.614437 11.114561
3950 2 5.160791 37.58796 12.583638
3951 5 5.006023 38.153128 11.758314
3952 2 22.862095 46.740704 6.476751
3953 2 24.033199 47.215977 5.469513
3954 5 23.031026 47.162728 5.6012
3955 2 15.507558 58.401672 2.306167
3956 2 14.952583 57.201175 3.234986
3957 5 15.439475 58.088556 3.239202
3958 2 15.214595 20.852974 5.879319
3959 2 14.91889 22.089308 6.877285
3960 5 14.641936 21.148676 6.626216
3961 2 12.828345 26.484554 15.009095
3962 2 13.30556 27.075887 16.435449
3963 5 12.871075 27.307715 15.551138
3964 2 15.655634 27.544073 1.000214
3965 2 14.771191 26.782465 2.118073
3966 5 15.147312 26.718052 1.180571
3967 2 28.313909 49.892712 9.572657
3968 2 27.646638 51.361204 9.471768
3969 5 28.193278 50.668726 8.975596
3970 2 33.835911 51.798636 2.564754
3971 2 33.21459 51.349607 1.142
3972 5 32.991569 51.58775 2.100163
3973 2 29.23923 46.758126 5.387788
3974 2 29.392157 47.299125 6.902987
3975 5 28.739522 47.14665 6.144472
3976 2 5.616976 40.838238 14.27966
3977 2 6.559485 41.158192 15.552924
3978 5 5.99478 41.57107 14.821372
3979 2 14.046932 17.361137 13.554081
3980 2 13.819128 18.889233 13.079819
3981 5 14.056945 18.297143 13.865567
3982 2 5.548587 44.570931 2.732443
3983 2 4.940139 43.075671 2.809164
3984 5 5.749197 43.62343 2.544751
3985 2 18.345637 57.661467 5.803824
3986 2 17.717679 58.888367 6.647792
3987 5 17.520109 57.984899 6.236404
3988 2 18.927421 35.706832 14.039985
3989 2 18.969681 35.113452 15.542652
3990 5 19.46551 35.161517 14.661533
3991 2 15.76436 56.500974 15.887664
3992 2 16.149659 56.111958 14.367103
3993 5 15.875835 55.741255 15.268284
3994 2 24.487237 39.231628 16.405427
3995 2 25.908592 39.384498 15.651587
3996 5 25.156971 39.889981 16.103339
3997 2 21.86263 31.558786 14.535986
3998 2 21.49636 31.97459 16.054158
3999 5 21.272823 32.132965 15.079748
4000 2 23.300333 26.693294 7.762204
4001 2 22.834282 27.484273 6.43215
4002 5 23.620438 27.051927 6.900725
4003 2 29.931892 42.023439 16.208919
4004 2 30.142766 40.684256 15.329137
4005 5 30.560057 41.565212 15.601738
4006 2 18.797622 49.077141 8.511111
4007 2 17.828238 47.97521 7.834401
4008 5 18.042501 48.963083 7.8866
4009 2 11.754056 33.653207 15.843171
4010 2 11.145835 33.327077 17.304541
4011 5 11.199452 34.022259 16.570801
4012 2 19.62067 44.973538 10.435544
4013 2 19.16343 45.073425 11.982428
4014 5 18.86155 44.826881 11.048292
4015 2 2.752443 22.08714 9.361737
4016 2 3.42109 22.072954 10.832998
4017 5 3.518061 21.743984 9.880683
4018 2 20.288614 27.270882 13.720985
4019 2 21.121189 26.16089 12.892353
4020 5 20.61459 27.034226 12.82045
4021 2 34.180124 2.791929 16.811565
4022 2 35.78779 2.731475 16.965355
4023 5 34.975794 3.332177 17.031278
4024 2 26.731665 58.353379 11.548747
4025 2 27.528959 59.756511 11.63499
4026 5 27.327204 58.958329 11.046154
4027 2 6.384713 57.059443 9.386316
4028 2 4.909983 57.226244 8.746596
4029 5 5.423668 57.086315 9.607452
4030 2 11.560495 44.759953 8.493058
4031 2 10.520707 43.533153 8.653359
4032 5 10.741726 44.360799 8.114212
4033 2 23.958714 5.300034 6.398158
4034 2 25.37893 5.320379 5.627141
4035 5 24.460999 5.744267 5.674557
4036 2 31.935181 28.338557 7.63669
4037 2 32.781716 29.229362 8.686329
4038 5 32.549426 28.284683 8.406776
4039 2 18.982984 50.367767 10.283215
4040 2 19.822752 50.933327 11.542909
4041 5 19.000162 51.075328 10.970451
4042 2 29.356297 44.269606 12.336626
4043 2 30.894545 44.715899 12.552289
4044 5 29.934461 44.923198 12.796815
4045 2 25.98898 41.860559 12.653863
4046 2 27.158042 41.246045 11.722434
4047 5 26.412133 41.016795 12.367097
4048 2 36.215013 26.30903 6.717321
4049 2 36.782035 25.039975 7.541869
4050 5 37.028172 25.780045 6.896703
4051 2 35.940612 12.331138 3.441867
4052 2 35.800468 10.838237 2.838957
4053 5 35.54532 11.808461 2.70445
4054 2 6.208216 28.806008 9.862503
4055 2 5.184521 30.05649 9.878046
4056 5 6.16127 29.791415 9.863022
4057 2 28.765558 11.862119 1.808457
4058 2 29.185854 13.114303 2.739737
4059 5 29.4973 12.4947 2.002431
4060 2 28.144973 14.573065 14.467745
4061 2 29.520186 14.263598 15.25826
4062 5 28.814187 13.871085 14.64832
4063 2 1.619042 8.819446 11.317756
4064 2 1.003424 8.553661 12.788222
4065 5 1.153096 8.149665 11.8723
4066 2 28.910935 17.300238 9.120461
4067 2 29.939493 16.406818 9.989808
4068 5 28.978494 16.493331 9.683993
4069 2 24.680824 8.455081 16.821665
4070 2 24.985754 6.917473 17.214952
4071 5 25.403431 7.825654 17.055955
4072 2 13.608286 7.224284 12.510214
4073 2 13.536919 6.979464 14.106105
4074 5 13.059732 7.389698 13.313307
4075 2 19.678822 16.031574 10.709041
4076 2 19.667179 16.947413 12.040581
4077 5 20.199982 16.697582 11.217033
4078 2 34.12992 9.081637 7.527598
4079 2 33.459414 8.62133 8.924178
4080 5 34.125467 8.365594 8.206195
4081 2 26.802993 16.193263 11.187123
4082 2 26.773817 16.509681 9.602534
4083 5 26.260247 16.599016 10.47017
4084 2 2.72326 22.046484 15.441275
4085 2 2.009083 21.813617 14.010325
4086 5 2.748766 21.49523 14.623535
4087 2 14.035926 57.614677 11.181258
4088 2 13.553894 58.263656 9.781841
4089 5 13.661756 58.431675 10.774143
4090 2 31.156802 20.511272 1.404008
4091 2 30.470352 19.068628 1.647855
4092 5 31.226905 19.679258 1.929433
4093 2 25.246238 21.218354 11.157658
4094 2 25.619804 22.281534 9.999214
4095 5 25.697322 21.313776 10.285507
4096 2 37.898652 16.865217 8.154648
4097 2 36.954121 16.609282 6.86847
4098 5 37.100015 17.196703 7.679751
4099 2 7.00417 1.941577 15.638805
4100 2 6.047857 1.836991 16.937428
4101 5 6.559354 2.474177 16.340023
4102 2 28.4371 52.103927 14.20132
4103 2 30.050111 52.095848 14.301447
4104 5 29.21196 51.551194 14.460761
4105 2 21.549921 21.641255 3.648236
4106 2 21.174224 21.630488 2.076412
4107 5 20.989594 22.079377 2.964633
4108 2 11.180232 17.798288 9.833937
4109 2 12.144791 18.32231 11.020074
4110 5 11.196733 18.328703 10.665573
4111 2 1.000095 58.55262 6.24842
4112 2 1.697846 59.078086 4.888668
4113 5 1.301003 59.364035 5.774827
4114 2 20.598157 56.940406 15.178757
4115 2 21.174298 56.881534 13.669952
4116 5 21.020581 56.34556 14.514718
4117 2 10.331676 27.685021 16.855653
4118 2 10.717992 27.739999 15.287331
4119 5 10.02862 28.013491 15.976167
4120 2 19.893034 15.795323 8.316734
4121 2 19.337951 17.204556 8.880508
4122 5 19.075028 16.267994 8.600775
4123 2 26.276542 52.356393 11.370499
4124 2 25.72173 51.107961 10.507077
4125 5 25.871553 51.459856 11.444227
4126 2 34.137638 29.942768 18.020858
4127 2 33.851281 28.95559 16.773711
4128 5 33.460748 29.346206 17.621903
4129 2 34.178996 19.480394 2.412043
4130 2 34.937148 19.255669 1.002575
4131 5 34.439776 18.793764 1.753435
4132 2 16.898597 26.65625 8.101594
4133 2 16.573094 25.142765 8.565605
4134 5 17.077429 25.987287 8.804259
4135 2 3.164914 34.822256 16.114147
4136 2 1.650158 35.367635 16.255468
4137 5 2.59671 35.620818 16.00157
4138 2 9.942099 25.801465 14.589331
4139 2 11.213921 24.991965 15.171631
4140 5 10.303287 24.895935 14.740295
4141 2 13.497329 19.350881 16.28054
4142 2 13.844674 19.784118 17.798286
4143 5 13.398909 20.079102 16.938748
4144 2 30.412493 59.832714 4.705757
4145 2 29.666376 61.016497 5.514375
4146 5 30.41106 60.332245 5.556461
4147 2 1.633192 12.814703 14.693944
4148 2 2.399391 13.836844 15.683926
4149 5 1.720233 13.76693 14.936675
4150 2 9.808729 22.249144 12.092102
4151 2 9.926709 20.898889 12.972322
4152 5 10.388326 21.765759 12.727425
4153 2 36.979465 56.565684 13.734724
4154 2 35.781749 56.962917 14.744464
4155 5 36.327018 56.194433 14.374814
4156 2 9.477819 16.00903 9.443102
4157 2 9.792911 15.853738 7.865605
4158 5 9.856761 16.476216 8.661201
4159 2 10.636266 23.396342 5.483939
4160 2 9.348181 22.450543 5.725179
4161 5 10.064042 23.000344 6.183207
4162 2 36.035215 31.572893 6.473982
4163 2 36.17485 30.799933 5.061562
4164 5 36.580379 30.914197 5.981897
4165 2 26.163297 19.806548 8.732532
4166 2 27.17136 18.638001 9.212328
4167 5 27.012009 19.353459 8.514292
4168 2 14.216048 16.796311 3.015854
4169 2 13.832216 16.477943 1.478581
4170 5 13.495724 16.875542 2.346461
4171 2 11.851798 4.596704 12.313277
4172 2 12.898369 4.894038 13.50834
4173 5 11.995063 5.140473 13.123845
4174 2 13.865808 48.1136 16.370278
4175 2 14.09098 49.710844 16.470305
4176 5 13.428705 48.985915 16.224544
4177 2 10.144152 5.18053 9.091015
4178 2 11.303902 4.847724 10.166243
4179 5 10.352913 4.639525 9.889115
4180 2 37.899848 33.150078 2.37888
4181 2 37.884957 31.580193 1.995298
4182 5 37.306596 32.374453 2.238562
4183 2 22.615653 48.882484 11.54161
4184 2 22.448955 48.54377 13.113036
4185 5 22.926455 48.281851 12.259854
4186 2 28.866677 4.597057 14.639267
4187 2 28.731226 4.073578 13.116271
4188 5 28.245104 4.178082 13.997912
4189 2 14.300682 37.677958 4.185054
4190 2 14.868185 37.995299 2.705483
4191 5 15.123669 37.708326 3.641913
4192 2 5.036249 39.32893 8.858952
4193 2 5.801277 40.3651 7.882746
4194 5 5.616101 39.386438 8.062903
4195 2 21.25567 32.01206 11.066962
4196 2 22.178515 31.772382 12.371878
4197 5 21.272708 32.08959 12.050288
4198 2 18.600546 12.813957 1.012905
4199 2 18.090337 11.703346 2.070321
4200 5 17.872332 12.593632 1.640913
4201 2 20.789539 8.961417 8.326043
4202 2 20.927495 7.607982 9.198439
4203 5 21.363495 8.49462 8.978657
4204 2 33.966784 7.042683 11.478331
4205 2 33.614531 6.677345 9.943944
4206 5 33.429618 7.324165 10.700224
4207 2 6.563133 31.389978 11.318686
4208 2 5.524711 31.644623 12.530599
4209 5 6.409046 31.221654 12.278454
4210 2 12.05277 33.719429 7.385881
4211 2 12.394919 33.5563 8.956937
4212 5 11.930699 34.137947 8.270851
4213 2 9.930391 6.27158 11.302922
4214 2 11.096508 7.016964 10.468374
4215 5 10.732171 6.838818 11.395763
4216 2 13.483813 29.518257 8.065481
4217 2 12.587364 30.387388 9.091583
4218 5 12.674315 30.07822 8.131697
4219 2 18.603781 5.831784 5.90994
4220 2 18.360508 6.369921 4.405573
4221 5 18.607636 6.642893 5.34841
4222 2 9.113193 40.477677 7.726142
4223 2 9.532891 40.402242 9.285007
4224 5 9.07474 40.967676 8.581509
4225 2 27.706653 34.977452 9.13559
4226 2 28.614141 34.841196 7.805253
4227 5 28.09204 34.326071 8.50281
4228 2 32.04601 7.063769 12.854383
4229 2 31.989388 5.974694 11.661653
4230 5 31.431309 6.523917 12.303081
4231 2 21.796665 24.570392 3.02469
4232 2 20.996938 23.957342 4.288218
4233 5 21.866272 23.928489 3.770576
4234 2 2.436193 14.099357 7.031917
4235 2 2.149439 12.511255 6.944743
4236 5 2.129973 13.319848 7.553287
4237 2 30.845404 54.398903 16.824971
4238 2 30.184747 55.469483 15.810433
4239 5 30.70089 55.363134 16.674616
4240 2 17.562047 57.247054 8.327738
4241 2 18.006497 57.344776 9.878484
4242 5 18.042564 56.770664 9.045644
4243 2 19.444416 56.768651 1.882289
4244 2 19.027349 58.058339 1.002144
4245 5 18.747884 57.457777 1.767488
4246 2 30.579856 26.352187 16.653812
4247 2 31.649703 27.27839 15.873126
4248 5 30.897594 26.611119 15.756467
4249 2 19.993173 1.806857 2.057733
4250 2 20.909211 0.998534 0.999724
4251 5 20.003808 1.426182 1.147676
4252 2 16.875819 21.128941 7.284509
4253 2 18.404054 20.986189 7.790488
4254 5 17.585724 20.474204 7.485965
4255 2 28.519984 54.788613 2.845746
4256 2 29.429272 53.890139 3.834601
4257 5 28.7783 53.860943 3.060063
4258 2 8.081363 7.920865 13.505785
4259 2 8.533918 6.753624 14.52786
4260 5 8.681052 7.143923 13.605609
4261 2 6.993712 3.247771 10.343958
4262 2 6.327658 4.199125 11.467878
4263 5 6.5954 3.248423 11.246498
4264 2 17.656709 4.522084 17.621791
4265 2 18.197496 4.720288 16.111771
4266 5 18.228122 4.119368 16.925703
4267 2 19.466475 19.670979 5.688455
4268 2 18.150751 18.812005 6.066515
4269 5 19.01969 19.18852 6.423878
4270 2 26.006435 5.08885 8.673722
4271 2 25.851561 3.90274 7.586959
4272 5 25.948473 4.109181 8.573122
4273 2 5.798647 3.041101 2.364612
4274 2 4.393667 2.321646 2.71147
4275 5 4.821262 3.117017 2.254224
4276 2 35.49369 51.182765 15.75389
4277 2 35.134376 52.185278 14.53826
4278 5 35.404728 52.135127 15.512386
4279 2 27.170957 39.338229 2.621255
4280 2 26.614047 39.16613 1.113897
4281 5 26.392036 39.041522 2.093545
4282 2 10.501655 35.125881 4.37342
4283 2 11.461619 34.944146 5.660796
4284 5 11.426325 35.246398 4.695433
4285 2 23.478002 47.700167 9.897319
4286 2 22.722031 47.662625 8.469386
4287 5 22.616823 47.49493 9.462027
4288 2 17.229886 42.119905 13.865361
4289 2 17.221381 42.930522 12.467247
4290 5 17.308126 43.021067 13.47164
4291 2 23.49986 33.456244 17.743928
4292 2 22.325764 33.898232 16.725085
4293 5 23.218666 33.42725 16.798772
4294 2 35.215312 18.878748 15.084968
4295 2 35.160476 20.044035 13.966488
4296 5 34.603608 19.39621 14.509396
4297 2 6.877808 5.773353 17.264548
4298 2 7.094896 4.620017 16.15343
4299 5 7.098018 5.619165 16.315357
4300 2 37.661699 37.447473 14.762088
4301 2 37.21756 37.10974 16.278852
4302 5 37.516843 36.708314 15.399185
4303 2 9.094147 37.136956 5.028255
4304 2 8.86653 36.658431 6.555049
4305 5 9.307182 36.422912 5.674775
4306 2 30.743352 43.184027 14.123792
4307 2 30.318692 42.348395 12.807251
4308 5 30.034283 42.614559 13.741486
4309 2 36.123769 57.551421 8.245607
4310 2 35.511489 57.348984 9.727507
4311 5 35.957376 56.880138 8.949114
4312 2 8.555187 37.221675 14.130471
4313 2 8.359474 37.647971 15.677036
4314 5 7.911516 37.217265 14.878066
4315 2 17.33083 43.490944 10.202518
4316 2 16.926815 44.726188 9.241872
4317 5 16.889052 44.372929 10.189664
4318 2 27.586078 17.961154 6.186126
4319 2 27.25839 18.347021 4.651322
4320 5 27.657007 18.684016 5.518539
4321 2 21.904256 54.882742 8.516223
4322 2 21.485877 53.447838 9.130964
4323 5 22.007706 53.908998 8.396421
4324 2 13.815872 6.497742 1.001004
4325 2 14.230626 5.015259 1.493058
4326 5 13.455655 5.605248 1.217632
4327 2 14.471711 46.664516 6.201686
4328 2 14.185069 46.230197 7.731751
4329 5 14.778245 46.070554 6.927273
4330 2 37.502196 17.187656 1.18345
4331 2 36.350261 16.433495 2.029726
4332 5 37.34979 16.528804 1.901724
4333 2 32.535351 30.30125 4.223379
4334 2 33.217766 30.387643 2.760935
4335 5 32.34689 30.47097 3.270012
4336 2 19.853398 58.595895 7.104808
4337 2 19.697813 58.944072 8.675305
4338 5 19.474153 58.269157 7.954893
4339 2 34.017049 18.89078 18.997016
4340 2 34.036399 18.514797 17.425343
4341 5 34.601812 18.825842 18.205141
4342 2 4.528727 53.79426 12.415251
4343 2 4.906068 54.232014 13.924516
4344 5 4.148843 53.959638 13.310554
4345 2 30.004062 46.683025 14.300714
4346 2 30.942305 46.877109 12.999205
4347 5 30.18791 47.282253 13.538903
4348 2 17.755596 30.95101 6.790334
4349 2 18.499568 32.362071 7.049774
4350 5 18.603764 31.436147 6.65438
4351 2 8.752674 57.825385 17.386958
4352 2 7.622986 57.663335 18.531266
4353 5 8.335155 57.176571 18.001734
4354 2 32.255058 60.085311 11.624142
4355 2 33.245898 61.276535 11.164669
4356 5 32.964345 60.321881 10.980576
4357 2 5.224293 38.361425 0.997879
4358 2 6.127549 39.559684 1.598044
4359 5 6.149168 38.697366 1.068452
4360 2 30.57495 24.617782 8.322056
4361 2 31.188584 23.679069 7.15837
4362 5 30.520889 23.719411 7.918029
4363 2 24.764056 46.92461 15.578533
4364 2 24.897991 47.601095 17.04015
4365 5 25.113511 47.713072 16.057531
4366 2 1.169096 60.272349 8.39812
4367 2 1.283826 60.297391 10.009984
4368 5 1.373421 60.853261 9.168849
4369 2 34.000734 17.585278 3.611581
4370 2 35.51695 17.620738 4.169908
4371 5 34.873963 17.128909 3.562289
4372 2 8.457077 14.633622 6.614463
4373 2 6.873896 14.62266 6.289942
4374 5 7.633514 14.098125 6.705117
4375 2 14.34531 26.013059 5.10845
4376 2 13.011069 25.10162 5.139731
4377 5 13.568625 25.726911 4.57169
4378 2 26.124338 9.190149 14.22271
4379 2 25.57278 8.637872 12.807553
4380 5 26.197021 9.303544 13.245423
4381 2 22.575814 50.510919 10.063202
4382 2 21.585914 51.71653 10.485688
4383 5 22.055084 50.882058 10.814418
4384 2 1.040515 43.394961 4.461902
4385 2 1.280085 44.285092 3.134435
4386 5 0.990729 44.312919 4.103984
4387 2 21.887584 21.473937 7.958914
4388 2 21.60522 21.798095 9.516826
4389 5 21.189715 21.464772 8.656141
4390 2 1.182841 40.176754 5.933832
4391 2 1.682988 39.53607 4.536953
4392 5 1.003314 40.152619 4.964081
4393 2 19.198771 3.961704 2.002853
4394 2 17.93336 3.991843 0.998003
4395 5 18.717689 3.438304 1.318862
4396 2 37.25842 27.805912 19.006996
4397 2 37.889096 27.388987 17.578599
4398 5 37.880516 28.099203 18.299742
4399 2 32.243422 35.060444 13.959487
4400 2 32.54327 36.318105 14.929165
4401 5 32.357854 35.323376 14.903416
4402 2 12.452943 8.542173 17.60955
4403 2 13.171765 7.178952 17.122913
4404 5 13.018493 8.154393 16.900318
4405 2 20.895537 62.159349 9.724797
4406 2 20.121053 61.464038 8.488426
4407 5 20.02758 62.114843 9.257999
4408 2 33.9414 11.714542 5.653562
4409 2 33.850746 12.202302 4.115457
4410 5 34.061635 12.494344 5.061377
4411 2 30.397854 10.707151 6.02103
4412 2 30.073695 9.538657 4.952648
4413 5 29.788476 9.955238 5.829938
4414 2 27.128909 32.343412 2.214714
4415 2 26.426543 33.456587 3.152488
4416 5 26.312633 32.886563 2.32386
4417 2 24.03122 10.976507 1.302758
4418 2 23.75411 11.233016 2.874162
4419 5 24.225352 11.588378 2.051863
4420 2 34.694999 44.509924 4.933374
4421 2 34.888036 43.743399 6.34301
4422 5 34.375013 44.473926 5.865868
4423 2 27.176653 19.498259 2.631796
4424 2 28.300888 18.340543 2.719458
4425 5 28.148842 19.333956 2.598873
4426 2 29.288665 49.38857 4.001721
4427 2 28.782112 47.915465 3.5713
4428 5 29.539584 48.4345 3.997171
4429 2 35.247036 18.601309 12.320804
4430 2 34.77478 19.246772 10.916437
4431 5 35.360223 19.383739 11.730699
4432 2 34.558153 31.731812 3.877614
4433 2 34.179174 32.136349 5.395712
4434 5 33.872452 32.174366 4.431864
4435 2 32.151226 58.274317 9.682574
4436 2 31.919354 58.676062 8.134435
4437 5 31.504452 58.223865 8.939358
4438 2 11.131735 7.601608 15.107856
4439 2 10.878773 7.228882 13.555767
4440 5 10.938892 6.853815 14.493977
4441 2 27.018388 24.358542 10.27631
4442 2 26.805648 25.572296 9.230633
4443 5 27.496507 25.026421 9.729894
4444 2 23.349209 16.01107 6.713361
4445 2 22.771414 16.30606 8.193574
4446 5 23.218048 16.721077 7.385609
4447 2 19.873899 22.037639 11.919534
4448 2 20.385607 20.523242 11.681514
4449 5 20.518974 21.489876 11.412517
4450 2 4.46141 15.360273 13.266428
4451 2 3.007949 16.025672 13.028543
4452 5 3.53126 15.159548 13.006119
4453 2 25.667654 53.881418 15.373923
4454 2 25.173629 53.774996 16.909016
4455 5 25.939378 53.585256 16.274859
4456 2 22.649977 16.877594 18.970395
4457 2 24.256453 16.703638 18.999905
4458 5 23.491007 17.219012 18.58396
4459 2 17.435231 52.589291 8.676897
4460 2 17.292828 53.794332 7.609426
4461 5 17.596501 53.553493 8.54447
4462 2 33.460314 32.653136 16.159331
4463 2 32.526316 33.100029 14.918432
4464 5 32.915022 33.395084 15.805212
4465 2 8.275509 39.832732 15.921912
4466 2 9.304304 39.262414 17.03016
4467 5 9.228036 39.801276 16.176733
4468 2 25.55153 39.498735 4.100735
4469 2 24.710803 39.261001 5.460351
4470 5 25.401043 38.860445 4.837736
4471 2 22.141163 57.736427 16.528878
4472 2 21.3001 58.874418 17.309573
4473 5 21.607776 57.910614 17.340289
4474 2 19.431476 15.592292 3.436164
4475 2 19.80039 15.770201 1.872788
4476 5 20.182168 15.719394 2.808839
4477 2 25.34677 33.831726 16.41442
4478 2 25.840254 33.765137 17.951929
4479 5 25.600743 33.212017 17.138775
4480 2 35.38527 43.465526 11.258144
4481 2 35.544622 45.066472 11.104932
4482 5 35.975663 44.172696 10.905191
4483 2 4.941961 13.006025 6.031956
4484 2 4.292269 12.545641 7.438314
4485 5 4.569947 12.231693 6.516978
4486 2 26.517138 19.4303 11.155576
4487 2 26.170771 18.126558 12.045621
4488 5 25.91491 18.65149 11.218875
4489 2 28.315238 30.378723 4.314405
4490 2 27.508826 28.985374 4.172366
4491 5 27.416443 29.975022 4.36365
4492 2 17.008619 52.003692 6.363689
4493 2 18.362837 52.624581 5.737202
4494 5 17.441868 52.266801 5.517344
4495 2 4.959121 50.869404 11.779939
4496 2 4.051624 51.659105 10.700718
4497 5 4.568545 51.74975 11.566226
4498 2 36.31296 11.037103 12.68343
4499 2 34.972403 11.4459 11.87864
4500 5 35.726322 11.796849 12.455675
4501 2 36.165807 16.912909 14.908466
4502 2 37.622865 16.936119 15.607279
4503 5 36.911207 16.338961 15.205441
4504 2 19.161887 20.158914 3.378839
4505 2 20.630081 19.651249 3.824462
4506 5 20.051846 19.908571 3.034552
4507 2 29.629181 25.241071 12.093588
4508 2 28.076406 25.563128 11.782037
4509 5 28.965589 25.31439 11.367295
4510 2 28.418624 21.48902 2.26044
4511 2 28.975269 20.619439 1.017109
4512 5 28.411146 21.418838 1.276443
4513 2 15.756417 37.972425 13.398997
4514 2 15.203449 36.492537 13.058334
4515 5 15.759436 37.035246 13.707081
4516 2 1.578851 32.621875 11.23158
4517 2 1.317354 32.863095 9.655087
4518 5 1.484248 32.160764 10.364598
4519 2 28.804057 17.128989 12.316437
4520 2 28.138659 17.952151 11.095149
4521 5 29.013344 17.684735 11.52867
4522 2 37.898122 21.622495 5.301675
4523 2 36.622188 21.010081 6.081955
4524 5 37.476165 20.77876 5.590283
4525 2 19.35762 41.078545 3.343268
4526 2 19.581204 39.519355 3.704974
4527 5 19.080948 40.361116 3.961313
4528 2 24.874895 55.38905 1.000481
4529 2 23.445607 55.163552 1.720331
4530 5 24.237877 55.788265 1.639282
4531 2 18.975374 54.817939 5.218096
4532 2 19.86731 54.102796 6.360426
4533 5 19.89898 54.575627 5.466024
4534 2 25.669638 45.815581 10.296809
4535 2 25.222432 46.368886 11.747931
4536 5 24.991707 46.360412 10.762426
4537 2 16.908696 38.735997 10.601806
4538 2 16.975129 39.371014 12.086473
4539 5 16.383038 39.224621 11.278683
4540 2 17.702442 38.827236 7.261065
4541 2 17.256816 39.592295 5.90903
4542 5 17.895707 38.909891 6.297194
4543 2 13.735718 29.00829 14.445879
4544 2 15.265871 29.345972 14.050279
4545 5 14.306783 29.370657 13.727683
4546 2 0.999992 19.508163 9.680216
4547 2 2.537452 19.855365 9.323056
4548 5 1.908489 19.126286 9.635108
4549 2 9.802567 22.251009 3.328381
4550 2 9.436414 21.465487 1.964276
4551 5 9.139992 21.648485 2.91463
4552 2 22.821061 19.538274 3.647286
4553 2 22.088102 18.473657 2.677103
4554 5 22.729872 18.575339 3.453195
4555 2 37.621978 62.158442 8.374689
4556 2 37.626617 61.423 6.935592
4557 5 37.903689 61.337701 7.905377
4558 2 35.667299 39.845856 5.123752
4559 2 37.126173 39.529115 5.742828
4560 5 36.130549 39.498979 5.922692
4561 2 1.923507 5.650289 6.721428
4562 2 1.536239 7.211017 6.882817
4563 5 1.199339 6.262877 6.992621
4564 2 30.212162 30.094376 12.575388
4565 2 30.11354 28.821981 13.566942
4566 5 29.728655 29.734108 13.356195
4567 2 31.069317 7.767674 9.38718
4568 2 31.701022 8.778266 10.47876
4569 5 31.308254 8.711168 9.548299
4570 2 10.706712 20.996739 6.813185
4571 2 11.782219 20.526064 7.923882
4572 5 11.26844 20.238392 7.100594
4573 2 29.669139 13.432094 9.230803
4574 2 29.417101 14.716219 8.282438
4575 5 29.431537 14.38953 9.240349
4576 2 1.000943 11.809687 8.684227
4577 2 1.805019 11.452112 10.039771
4578 5 1.90381 11.74888 9.07712
4579 2 1.080432 45.927934 10.874679
4580 2 1.91213 47.211265 10.351959
4581 5 0.999291 46.882891 10.640788
4582 2 7.557298 21.209244 12.857751
4583 2 7.685967 21.793779 11.356532
4584 5 7.970339 21.046182 11.97682
4585 2 26.839897 51.804165 6.659697
4586 2 28.393048 52.231599 6.789773
4587 5 27.72034 51.501082 6.98557
4588 2 6.437701 10.935679 8.950969
4589 2 6.50378 11.488654 7.433818
4590 5 7.008017 11.421146 8.308869
4591 2 31.783453 48.641469 3.745807
4592 2 32.443156 49.202178 5.110465
4593 5 31.576238 48.924575 4.667839
4594 2 8.101916 58.150167 5.883779
4595 2 8.647432 58.264675 7.400749
4596 5 8.787334 58.579208 6.448896
4597 2 27.460786 37.784656 12.384381
4598 2 26.942202 39.051805 11.525719
4599 5 27.75293 38.622735 11.953676
4600 2 17.143034 62.158248 4.032277
4601 2 18.611007 61.495614 4.165945
4602 5 18.005898 62.043993 3.567905
4603 2 20.541815 42.226713 10.7715
4604 2 19.554379 42.881174 11.870839
4605 5 19.765023 42.824643 10.882426
4606 2 35.397324 28.272405 10.457419
4607 2 33.831468 27.996178 10.168131
4608 5 34.700566 27.574119 10.469894
4609 2 12.440322 1.001021 7.520715
4610 2 13.273024 1.026473 8.905582
4611 5 13.288076 1.295968 7.930045
4612 2 7.467607 46.522896 4.332474
4613 2 8.608036 45.410007 4.602277
4614 5 8.235393 46.05957 3.921299
4615 2 9.610385 8.492706 16.42315
4616 2 8.513564 9.021407 15.360438
4617 5 9.022037 9.253731 16.204244
4618 2 30.426424 5.426924 4.860682
4619 2 28.817552 5.375455 4.716547
4620 5 29.594425 5.902285 5.095288
4621 2 19.438273 22.998979 15.278755
4622 2 19.813315 23.34942 13.746296
4623 5 19.08088 23.384633 14.444026
4624 2 22.449566 28.479245 17.779045
4625 2 21.578411 29.191682 16.619124
4626 5 21.527728 28.643033 17.468207
4627 2 13.369671 2.858639 16.097812
4628 2 14.876634 3.172192 15.605223
4629 5 13.970974 3.581002 15.79805
4630 2 29.86218 19.164393 6.734147
4631 2 30.01544 17.641223 7.25218
4632 5 29.433029 18.468372 7.286066
4633 2 4.544334 56.044855 11.333237
4634 2 4.352491 56.117166 12.936316
4635 5 5.016383 55.939902 12.193112
4636 2 11.534851 45.576506 3.50354
4637 2 10.788834 45.669631 4.934163
4638 5 10.668019 45.767651 3.934001
4639 2 30.211621 49.23221 16.066955
4640 2 30.300136 49.280349 14.453963
4641 5 30.684363 49.655867 15.311799
4642 2 9.363177 40.86492 14.255219
4643 2 9.633704 40.56408 12.690545
4644 5 9.932947 41.110572 13.488246
4645 2 26.363359 49.212655 12.658716
4646 2 27.648247 49.92147 11.981561
4647 5 27.297817 49.060253 12.3816
4648 2 34.004007 35.309356 7.727154
4649 2 33.659627 33.980615 8.580232
4650 5 34.332824 34.408046 7.956826
4651 2 19.444728 7.582692 2.92985
4652 2 20.685468 8.617968 2.904101
4653 5 19.68343 8.529849 2.79148
4654 2 29.005147 31.673003 10.322862
4655 2 28.35714 31.407016 11.779307
4656 5 29.222462 31.567665 11.27937
4657 2 32.943213 39.324787 17.231905
4658 2 33.42501 39.748613 15.748619
4659 5 33.238825 40.089556 16.683295
4660 2 18.291191 49.763582 12.603413
4661 2 19.619324 48.885926 12.324711
4662 5 18.656243 49.032929 12.050137
4663 2 29.510224 6.640977 10.452438
4664 2 29.396297 5.406881 11.489706
4665 5 29.977918 5.837259 10.781878
4666 2 4.605697 38.916946 3.050193
4667 2 3.145784 38.331877 3.422004
4668 5 3.739459 38.644955 2.664337
4669 2 7.157889 55.743737 1.461296
4670 2 8.336414 55.869626 2.559989
4671 5 7.950801 56.272823 1.715441
4672 2 8.819048 26.470437 4.218842
4673 2 7.746506 26.624932 3.019809
4674 5 8.122581 27.064184 3.850563
4675 2 34.075825 34.233879 1.970275
4676 2 35.272902 33.208543 2.327469
4677 5 34.75089 33.634673 1.572192
4678 2 3.807097 15.279362 9.45248
4679 2 3.687819 15.899649 10.940066
4680 5 3.985022 15.093568 10.404874
4681 2 24.633884 51.504022 1.342427
4682 2 26.157829 51.018463 1.574203
4683 5 25.286323 51.246025 2.035962
4684 2 20.13427 20.435424 16.774391
4685 2 21.495052 19.997547 16.020447
4686 5 21.046559 20.090667 16.92306
4687 2 22.918143 55.254892 14.287785
4688 2 23.820207 55.353177 15.625139
4689 5 23.781197 55.57876 14.639179
4690 2 36.713935 25.62162 14.018001
4691 2 37.498334 26.457395 15.157339
4692 5 36.595327 26.293714 14.730358
4693 2 2.052742 36.59009 1.821422
4694 2 3.360655 37.173824 1.072747
4695 5 2.581442 36.533053 0.990487
4696 2 10.952006 12.505433 8.418925
4697 2 12.495029 12.026769 8.46198
4698 5 11.847018 12.68209 8.043456
4699 2 34.039769 23.65823 16.103148
4700 2 34.758197 23.857507 17.53704
4701 5 34.705558 24.202289 16.586839
4702 2 8.461232 38.402891 12.276174
4703 2 8.942296 37.026339 11.57934
4704 5 8.223786 37.73924 11.585945
4705 2 17.568795 26.214072 3.309424
4706 2 16.389734 26.409145 4.397383
4707 5 16.60481 26.398936 3.408361
4708 2 22.156128 26.416303 15.387714
4709 2 21.845843 26.524031 16.970121
4710 5 21.685322 26.953834 16.067885
4711 2 23.2501 45.103462 1.000087
4712 2 23.392728 44.715639 2.562504
4713 5 23.871678 44.733635 1.670982
4714 2 18.654603 12.608967 11.618232
4715 2 20.267162 12.646345 11.517483
4716 5 19.484097 12.397997 12.108804
4717 2 37.115005 22.253027 17.325369
4718 2 37.392816 22.840643 18.805039
4719 5 36.885273 22.988182 17.941813
4720 2 2.155296 24.88566 1.047865
4721 2 1.055583 26.068994 1.000467
4722 5 1.949249 25.789618 1.384963
4723 2 6.469967 19.512739 14.874957
4724 2 5.971521 19.740609 13.354588
4725 5 6.755568 19.464078 13.931933
4726 2 35.072266 2.87203 4.839243
4727 2 35.25854 2.480939 3.282244
4728 5 35.221633 2.114581 4.225083
4729 2 21.736176 55.321368 16.328975
4730 2 22.124258 54.686522 17.763638
4731 5 22.105018 54.517428 16.765858
4732 2 9.156925 46.384888 7.069564
4733 2 9.747062 47.875792 7.271645
4734 5 9.988852 46.894483 7.215995
4735 2 8.150005 23.878167 16.542012
4736 2 7.297167 24.0694 15.182603
4737 5 7.613806 24.527342 16.027917
4738 2 2.994622 47.582254 2.342446
4739 2 3.563478 46.880889 1.002154
4740 5 3.361932 46.739748 1.983982
4741 2 24.085719 17.206252 5.020471
4742 2 24.293299 18.80631 5.113318
4743 5 23.681762 18.039005 5.361899
4744 2 3.878101 30.608889 14.681352
4745 2 3.794731 30.402317 13.080642
4746 5 3.931993 29.931562 13.966122
4747 2 18.415416 7.328239 1.004272
4748 2 17.217127 6.24381 1.007898
4749 5 17.854656 6.769222 1.592728
4750 2 26.893596 5.969333 13.874611
4751 2 26.326629 6.556288 12.479646
4752 5 26.351677 6.694228 13.482079
4753 2 35.071406 15.089255 15.469481
4754 2 34.679842 14.593387 13.981971
4755 5 35.092938 14.312114 14.862177
4756 2 37.68125 35.035882 5.016072
4757 2 37.900295 35.148637 3.418824
4758 5 37.337306 35.46627 4.197721
4759 2 5.950417 48.572334 15.11394
4760 2 7.197898 47.563679 15.309643
4761 5 6.923418 48.480347 14.979633
4762 2 37.899628 41.324988 4.737266
4763 2 37.727342 40.834262 3.207103
4764 5 37.246698 40.972595 4.087087
4765 2 12.904723 58.504078 4.972321
4766 2 14.230377 59.394772 4.724934
4767 5 13.617176 58.699537 4.318535
4768 2 28.78481 42.487403 1.247718
4769 2 29.788011 43.633012 1.78907
4770 5 29.566587 43.036575 1.001821
4771 2 16.262582 40.370071 3.046127
4772 2 16.831912 41.789381 3.568925
4773 5 17.090017 40.888857 3.185563
4774 2 28.83924 43.591142 17.373594
4775 2 27.274616 43.394967 17.72766
4776 5 28.126123 42.91547 17.463943
4777 2 35.917506 6.240463 4.302405
4778 2 35.10411 6.323723 5.696446
4779 5 35.010763 6.263759 4.690356
4780 2 5.793451 27.94671 12.673846
4781 2 5.356316 29.320659 11.943729
4782 5 6.112933 28.66082 12.07284
4783 2 29.048089 29.358537 1.287541
4784 2 28.096026 30.37018 2.113404
4785 5 28.764252 29.614527 2.197012
4786 2 17.068539 7.737204 12.412254
4787 2 15.748595 6.831724 12.189207
4788 5 16.390838 7.475578 11.744793
4789 2 24.259557 11.798987 5.414337
4790 2 22.968262 12.337431 4.605305
4791 5 23.859965 12.602373 5.004303
4792 2 26.509106 8.72819 2.345128
4793 2 25.612925 8.705958 1.000412
4794 5 25.836984 9.236866 1.832554
4795 2 8.136338 44.691226 9.549821
4796 2 9.350808 45.397186 10.348933
4797 5 9.075293 44.982503 9.467651
4798 2 7.017614 36.341996 10.394664
4799 2 7.938495 35.34248 9.520111
4800 5 7.120838 35.401957 10.113767
4801 2 4.592974 24.222973 14.209654
4802 2 3.017645 24.492282 14.449871
4803 5 3.746481 23.7903 14.473233
4804 2 23.81696 6.848965 2.489832
4805 2 22.918039 5.839651 3.375904
4806 5 23.369978 6.745253 3.363149
4807 2 26.635268 49.818371 14.921494
4808 2 28.202236 49.598324 15.250255
4809 5 27.498956 50.286346 15.012452
4810 2 4.703839 30.720877 1.585447
4811 2 3.732991 31.877123 1.008868
4812 5 3.923207 30.882978 1.004441
4813 2 36.497085 55.023009 7.902076
4814 2 35.128545 55.555736 7.227395
4815 5 35.513554 54.969806 7.95745
4816 2 13.897433 33.062808 2.999855
4817 2 13.443049 33.246488 4.539885
4818 5 13.244967 32.759657 3.674849
4819 2 28.206207 12.421202 6.427826
4820 2 29.600442 12.863958 7.114827
4821 5 28.750891 13.203525 6.681832
4822 2 27.250476 13.994544 8.100477
4823 2 27.414549 13.615922 9.663045
4824 5 27.536324 13.278901 8.716412
4825 2 37.861535 21.602568 2.464459
4826 2 37.42345 22.087901 0.986477
4827 5 37.911837 22.357283 1.83113
4828 2 26.397875 41.414565 3.425089
4829 2 27.156325 42.653875 2.717444
4830 5 27.270909 41.866608 3.343231
4831 2 35.558442 41.397079 14.88413
4832 2 36.543735 42.523216 15.494791
4833 5 35.592328 42.177848 15.486195
4834 2 5.294011 22.25939 15.933113
4835 2 5.83314 23.501162 16.815857
4836 5 5.182351 23.226811 16.090783
4837 2 1.52922 10.091818 16.829147
4838 2 1.083778 8.949696 15.77604
4839 5 1.718238 9.16986 16.533348
4840 2 22.888233 22.534316 5.13125
4841 2 22.912368 22.965074 6.688735
4842 5 22.378201 23.008401 5.830065
4843 2 27.283313 8.029693 15.937216
4844 2 28.249372 6.835696 15.434227
4845 5 27.663902 7.604308 15.132585
4846 2 34.786431 25.426804 11.0435
4847 2 36.158297 25.510254 11.893745
4848 5 35.769674 25.414303 10.964072
4849 2 4.275332 59.208243 1.712669
4850 2 3.758578 60.586643 2.379659
4851 5 4.174625 60.176549 1.553066
4852 2 16.822353 4.801251 4.371467
4853 2 17.321985 5.068824 2.857972
4854 5 16.62747 5.314793 3.552
4855 2 35.871807 60.916293 12.911852
4856 2 35.692596 61.855977 14.214454
4857 5 35.461793 61.753655 13.234257
4858 2 16.31282 51.336939 2.322264
4859 2 17.111428 51.81422 1.000779
4860 5 17.143771 51.203716 1.807479
4861 2 5.47547 7.950141 5.128244
4862 2 5.517519 7.109507 3.748584
4863 5 5.705917 7.071943 4.742375
4864 2 4.410165 35.879319 14.503909
4865 2 3.61865 34.655304 13.805921
4866 5 3.577249 35.641057 14.031983
4867 2 1.929368 45.112102 12.733245
4868 2 2.54549 44.305683 13.991012
4869 5 2.752677 44.972922 13.258624
4870 2 7.791785 31.205075 4.558547
4871 2 6.352063 31.76386 4.082255
4872 5 7.062029 31.822953 4.80127
4873 2 12.885631 8.361058 10.386971
4874 2 12.093265 8.389697 8.978699
4875 5 12.60972 8.949845 9.645059
4876 2 12.048803 20.495177 10.709246
4877 2 11.913902 20.237772 12.299039
4878 5 12.217284 20.897662 11.594034
4879 2 24.410512 34.139995 3.922832
4880 2 23.43722 33.422988 4.995445
4881 5 24.382621 33.741898 4.825036
4882 2 35.156808 23.289511 8.64607
4883 2 35.949219 23.42387 10.048186
4884 5 35.570345 23.938563 9.263282
4885 2 5.281509 37.039838 9.1342
4886 2 6.48964 37.364621 8.111053
4887 5 5.504354 37.142901 8.178717
4888 2 31.022291 25.830212 13.689207
4889 2 30.857878 26.996901 12.582998
4890 5 30.989533 26.808813 13.568806
4891 2 19.257256 41.548503 9.006033
4892 2 18.662842 40.747528 7.734418
4893 5 18.504775 41.520343 8.368688
4894 2 10.518654 13.879675 6.757434
4895 2 10.649591 13.641153 5.164368
4896 5 10.528292 13.183182 6.058838
4897 2 21.201975 51.375496 6.654473
4898 2 21.070846 50.999224 5.088228
4899 5 20.605222 51.439834 5.871544
4900 2 32.263153 10.271494 7.726718
4901 2 32.503025 10.08423 6.139491
4902 5 32.089979 9.668967 6.965008
4903 2 17.217508 54.599933 2.086766
4904 2 18.341574 54.190055 1.000317
4905 5 18.180243 54.662634 1.880754
4906 2 26.469066 46.038717 14.5068
4907 2 27.01883 46.098316 12.988214
4908 5 26.273866 45.756231 13.58196
4909 2 16.487089 1.269825 3.511897
4910 2 14.903558 1.44745 3.781666
4911 5 15.593884 0.99572 3.195222
4912 2 17.488806 16.150672 10.862779
4913 2 16.927701 14.935291 11.768265
4914 5 17.679 15.228301 11.156528
4915 2 20.212592 21.741491 5.410055
4916 2 20.024869 22.2088 6.945724
4917 5 19.543958 21.862103 6.125326
4918 2 20.25376 44.175808 3.695702
4919 2 20.769002 42.70237 4.114511
4920 5 19.949207 43.276781 3.964456
4921 2 26.983185 58.90959 15.503306
4922 2 25.900098 59.58062 16.497559
4923 5 26.849612 59.237778 16.424003
4924 2 26.700227 31.025442 16.53149
4925 2 27.212743 32.352753 15.765026
4926 5 27.245804 31.840523 16.63741
4927 2 6.667545 25.223342 4.324178
4928 2 6.137002 24.964055 2.819788
4929 5 5.900296 25.36217 3.719789
4930 2 28.748387 35.835131 11.326434
4931 2 29.148364 35.980741 12.885508
4932 5 29.161733 36.44246 11.984862
4933 2 29.163885 21.512016 61.818666
4934 2 30.490831 22.245106 62.378745
4935 5 29.929975 21.404119 62.430789
4936 2 15.628502 39.242773 68.697143
4937 2 14.748152 40.423661 69.362261
4938 5 14.766038 39.437547 69.134692
4939 2 25.928602 2.661229 60.647595
4940 2 25.142722 1.970802 61.879504
4941 5 25.096776 2.190829 60.892587
4942 2 3.486826 47.934746 69.854446
4943 2 4.552136 48.360278 70.992836
4944 5 3.881505 48.709774 70.320056
4945 2 11.784904 2.433714 64.753995
4946 2 12.0779 3.382671 63.479033
4947 5 12.386364 3.136501 64.411115
4948 2 6.495401 46.954921 63.598917
4949 2 7.798522 47.688972 64.211243
4950 5 7.104636 47.720893 63.475015
4951 2 29.521232 25.737244 69.994178
4952 2 28.94483 24.550658 69.060547
4953 5 29.174159 25.535994 69.092919
4954 2 32.904144 12.081262 75.392128
4955 2 33.449973 10.770597 76.164219
4956 5 33.097737 11.120203 75.282044
4957 2 16.942065 8.686403 64.656175
4958 2 17.32005 8.344811 63.122442
4959 5 16.839635 8.008044 63.947255
4960 2 19.644458 3.29377 65.799383
4961 2 20.847334 3.019232 64.755538
4962 5 20.560384 3.567959 65.556216
4963 2 13.630734 6.824429 67.888792
4964 2 14.396311 5.539651 68.501272
4965 5 14.019707 5.9484 67.655329
4966 2 5.453732 58.797263 70.481028
4967 2 6.464805 59.893821 71.103272
4968 5 6.159367 59.446238 70.248343
4969 2 3.096375 19.346718 69.965784
4970 2 3.622346 19.013428 71.457148
4971 5 3.844561 19.490453 70.592513
4972 2 5.374488 31.80418 63.175238
4973 2 5.836881 31.375607 61.687147
4974 5 5.427165 31.042383 62.550641
4975 2 16.583563 57.995769 73.621736
4976 2 15.843023 58.713139 72.377198
4977 5 16.357037 58.87423 73.234149
4978 2 4.529107 28.330208 64.119409
4979 2 4.62734 27.448862 62.768308
4980 5 4.190382 27.515061 63.678919
4981 2 26.115218 11.197139 76.232236
4982 2 26.329876 10.612935 74.740752
4983 5 26.570175 10.490002 75.716288
4984 2 13.560934 2.24509 76.55171
4985 2 13.464704 0.998063 75.528205
4986 5 13.801828 1.295568 76.435049
4987 2 12.889938 28.009851 66.063735
4988 2 11.540834 27.152646 65.824966
4989 5 12.0269 27.760927 66.471697
4990 2 32.648323 26.373317 74.753106
4991 2 33.141383 26.468527 76.289244
4992 5 32.94242 27.003169 75.453123
4993 2 37.43282 13.022403 70.318423
4994 2 37.151894 14.594437 70.070058
4995 5 37.194082 13.685028 69.627652
4996 2 5.690712 48.879209 62.250741
4997 2 5.101442 48.789775 60.748524
4998 5 4.967014 49.202022 61.663133
4999 2 12.874712 53.282009 69.039764
5000 2 12.744021 53.746664 70.582136
5001 5 12.440257 53.937327 69.635615
5002 2 7.838221 26.076681 64.363804
5003 2 7.436592 25.897763 65.918982
5004 5 8.198793 25.853187 65.25446
5005 2 31.269085 57.285085 60.802658
5006 2 31.408144 56.983936 62.384387
5007 5 31.526254 56.593866 61.457876
5008 2 32.222558 14.78127 74.990638
5009 2 31.632895 14.669576 76.49121
5010 5 32.111261 14.166818 75.754374
5011 2 34.605623 12.935599 65.865887
5012 2 35.283671 14.365223 65.536765
5013 5 35.469841 13.407718 65.807044
5014 2 25.718791 34.4579 69.285824
5015 2 24.957292 33.035039 69.199327
5016 5 25.249001 33.776856 69.823139
5017 2 25.141381 53.708373 63.572513
5018 2 25.178038 54.248063 65.095433
5019 5 24.698562 54.320439 64.206956
5020 2 26.971126 17.340626 74.272364
5021 2 25.684947 16.390184 74.039338
5022 5 26.487991 16.559228 74.63185
5023 2 6.626281 5.179217 71.111613
5024 2 5.684652 5.198372 72.424953
5025 5 5.818043 4.780418 71.512786
5026 2 1.676395 35.500779 64.729542
5027 2 1.004352 35.484167 66.199229
5028 5 1.014518 35.95478 65.303156
5029 2 34.669033 47.757831 69.787559
5030 2 34.188659 49.248853 69.390081
5031 5 34.882033 48.714684 69.898435
5032 2 23.645296 53.113716 73.695138
5033 2 23.527138 52.717931 75.257601
5034 5 24.16441 53.010516 74.527665
5035 2 34.302694 30.183238 72.297311
5036 2 33.692664 30.085797 73.790718
5037 5 33.469746 30.034936 72.804691
5038 2 17.509552 17.437377 69.582052
5039 2 17.995713 18.70692 68.708094
5040 5 17.243314 18.045361 68.852186
5041 2 11.580463 19.377687 72.906824
5042 2 11.927225 19.111854 74.462775
5043 5 11.715994 19.824589 73.775812
5044 2 1.68141 46.960159 63.023732
5045 2 1.606692 45.614397 62.13197
5046 5 2.189828 46.400416 62.390147
5047 2 26.277851 49.554675 73.203276
5048 2 27.788412 49.015247 73.401056
5049 5 27.226289 49.823627 73.166393
5050 2 19.76851 26.809448 72.695406
5051 2 20.94105 27.469173 73.590843
5052 5 20.439272 27.532607 72.714075
5053 2 19.177198 49.346943 66.433682
5054 2 19.476921 48.675306 67.872767
5055 5 18.979819 48.562426 66.99831
5056 2 11.046185 13.150694 67.617048
5057 2 11.334853 13.740169 69.093897
5058 5 10.630134 13.622675 68.376894
5059 2 2.728026 52.042998 74.165373
5060 2 4.094233 52.905511 74.12734
5061 5 3.09907 52.945932 74.307739
5062 2 18.031659 3.429389 67.93377
5063 2 18.54631 3.171621 69.443931
5064 5 17.731348 3.34717 68.869871
5065 2 18.233955 43.141188 63.199896
5066 2 17.022761 43.020082 64.263023
5067 5 17.537121 43.658306 63.669196
5068 2 11.830617 5.680943 63.354156
5069 2 13.444399 5.640918 63.276704
5070 5 12.616563 6.133504 62.965944
5071 2 20.49843 47.466358 63.679873
5072 2 21.130478 47.720848 62.214388
5073 5 21.198798 47.161792 63.055409
5074 2 9.706114 31.323699 59.979357
5075 2 10.07756 31.60688 61.526526
5076 5 9.653054 30.945279 60.88887
5077 2 19.294593 55.117321 70.088433
5078 2 18.360707 55.63664 68.875972
5079 5 18.55371 54.856619 69.491476
5080 2 5.224078 61.644224 69.065471
5081 2 5.227494 62.102958 67.51581
5082 5 5.708192 62.19099 68.402212
5083 2 15.358506 29.967036 73.8174
5084 2 14.976406 29.995884 72.247348
5085 5 14.981812 30.534906 73.104059
5086 2 20.668811 1.089534 69.30316
5087 2 20.555759 1.701438 67.811621
5088 5 21.008721 0.998213 68.381557
5089 2 31.018064 39.920829 74.746439
5090 2 30.035142 39.233678 75.82976
5091 5 30.922805 39.147186 75.351116
5092 2 23.075806 5.695247 73.079837
5093 2 23.497585 5.202189 71.59967
5094 5 23.094806 4.911133 72.481477
5095 2 13.804877 36.206931 65.47461
5096 2 12.59856 35.278435 64.931846
5097 5 12.849554 35.995514 65.600672
5098 2 9.081178 46.906955 75.945453
5099 2 7.603067 46.773508 76.5852
5100 5 8.333825 46.279198 76.089036
5101 2 6.187445 25.332456 67.981676
5102 2 6.923184 24.456087 69.122975
5103 5 6.02519 24.761738 68.769829
5104 2 21.245565 48.615087 66.292755
5105 2 22.181361 48.738971 67.60456
5106 5 21.668511 49.261888 66.90594
5107 2 24.865957 50.407427 67.900522
5108 2 25.597006 49.936673 69.262819
5109 5 25.678944 50.528808 68.446003
5110 2 18.944959 45.305493 64.882815
5111 2 19.462348 45.103977 63.365055
5112 5 19.396378 44.670694 64.277437
5113 2 7.643257 43.040244 62.591587
5114 2 6.569477 42.894319 61.392588
5115 5 7.141409 43.548792 61.911323
5116 2 35.713082 4.125232 76.548726
5117 2 36.312026 4.080135 75.04835
5118 5 36.472358 4.415593 75.989779
5119 2 24.62559 29.681464 67.696019
5120 2 25.162536 31.160471 68.064969
5121 5 25.350151 30.169814 68.154011
5122 2 16.510323 8.750716 75.501738
5123 2 14.979373 8.234161 75.537223
5124 5 15.759202 8.459226 74.932457
5125 2 24.569253 54.079346 70.345223
5126 2 23.229738 54.591998 69.600387
5127 5 24.237967 54.532238 69.533824
5128 2 5.189682 33.683595 73.16485
5129 2 4.628575 34.727729 72.066288
5130 5 5.112259 33.84798 72.195204
5131 2 29.139039 14.8294 62.58695
5132 2 29.817992 14.868855 64.053021
5133 5 29.871668 15.232898 63.11009
5134 2 2.120516 29.67933 62.043965
5135 2 2.574388 30.289958 60.618121
5136 5 2.902828 29.98174 61.524574
5137 2 15.115014 41.653416 71.633903
5138 2 16.504657 42.477784 71.599196
5139 5 15.512241 42.543328 71.787191
5140 2 7.599654 33.806618 68.3306
5141 2 9.168812 33.436268 68.218881
5142 5 8.364106 33.776456 67.707756
5143 2 33.100757 13.24453 67.441575
5144 2 31.985745 13.647394 68.539913
5145 5 32.778227 13.984835 68.00828
5146 2 30.561337 44.132891 64.461184
5147 2 29.777966 43.679147 65.799968
5148 5 30.632071 44.089602 65.444217
5149 2 24.118938 48.184285 70.151579
5150 2 23.867752 47.323874 68.806777
5151 5 24.467156 48.011901 69.244794
5152 2 12.782137 14.944307 67.956803
5153 2 12.260487 16.002464 66.852231
5154 5 11.971841 15.297469 67.518708
5155 2 16.58308 44.933303 66.951038
5156 2 16.598831 44.887698 65.335622
5157 5 16.003532 44.883686 66.154236
5158 2 16.234842 60.024682 60.721843
5159 2 16.371046 59.318413 62.169092
5160 5 16.817543 59.447339 61.2699
5161 2 26.454137 50.479393 71.214187
5162 2 25.812582 51.847645 70.641309
5163 5 26.250865 51.416635 71.445464
5164 2 24.919602 42.089851 73.822516
5165 2 26.2079 41.271512 74.354028
5166 5 25.212703 41.410775 74.475339
5167 2 7.441924 23.086224 76.59063
5168 2 6.922694 21.555941 76.613647
5169 5 7.053705 22.372882 76.030576
5170 2 3.280348 53.91584 61.074609
5171 2 3.355653 55.527784 60.985952
5172 5 2.730027 54.733756 61.03733
5173 2 6.724475 47.49344 59.693126
5174 2 7.382939 46.049738 59.999793
5175 5 6.985135 46.880002 60.420437
5176 2 25.965587 44.994165 75.796261
5177 2 25.424749 44.480475 74.362555
5178 5 25.146979 44.784579 75.287159
5179 2 3.604253 43.773928 65.226721
5180 2 2.533161 42.778395 64.538557
5181 5 3.500931 43.074957 64.538249
5182 2 15.248492 43.76772 63.216033
5183 2 14.594953 44.114747 64.652819
5184 5 15.034413 44.509074 63.830682
5185 2 24.840839 41.497443 76.641093
5186 2 25.414155 43.006285 76.559866
5187 5 25.666796 42.02644 76.535325
5188 2 29.564002 1.798714 68.530387
5189 2 30.561751 2.585789 69.528838
5190 5 29.706437 2.658598 68.992494
5191 2 32.889393 16.715706 72.39168
5192 2 31.61286 16.128224 73.189942
5193 5 32.598937 16.345978 73.258955
5194 2 20.813935 38.676068 66.266747
5195 2 21.326852 37.145841 66.351701
5196 5 21.165559 37.927406 65.729071
5197 2 8.232469 49.595507 67.562475
5198 2 9.113286 48.929892 66.382216
5199 5 8.335796 48.78249 67.013332
5200 2 11.169209 11.390824 64.246637
5201 2 10.059498 10.345298 64.782653
5202 5 10.502862 10.724206 63.955377
5203 2 15.4047 26.235712 60.825991
5204 2 13.848756 26.670579 60.868734
5205 5 14.776241 26.893764 61.207094
5206 2 31.887269 52.437332 65.752429
5207 2 32.120879 52.054822 64.199687
5208 5 32.05668 51.683443 65.139093
5209 2 24.235328 10.959525 69.708856
5210 2 24.693275 11.326926 68.203135
5211 5 25.002351 10.946183 69.088592
5212 2 23.126603 48.810019 75.51525
5213 2 24.560757 49.536611 75.350439
5214 5 23.559038 49.681795 75.353269
5215 2 36.869469 49.087774 61.586587
5216 2 36.669381 47.74598 62.464909
5217 5 36.871155 48.102386 61.53928
5218 2 4.511887 47.768206 64.778703
5219 2 5.962903 48.284009 65.269006
5220 5 5.119467 48.545417 64.774223
5221 2 34.275379 14.672717 74.20465
5222 2 33.458271 13.37341 73.698654
5223 5 34.148917 14.065691 73.437345
5224 2 32.96459 48.957379 74.410895
5225 2 34.538109 49.29232 74.256789
5226 5 33.603772 49.591574 74.007814
5227 2 20.742884 35.154772 76.143199
5228 2 21.14116 33.612448 75.870235
5229 5 20.368595 34.259336 75.966185
5230 2 22.478532 13.759736 66.596597
5231 2 23.247497 12.922763 67.745538
5232 5 22.991685 12.93444 66.766277
5233 2 34.729633 7.596214 76.467326
5234 2 35.080456 6.1271 75.892414
5235 5 34.594881 6.63148 76.623404
5236 2 25.571485 25.937628 72.175724
5237 2 24.015438 26.333915 71.9925
5238 5 24.83213 25.9635 71.523102
5239 2 32.083037 30.659646 61.526605
5240 2 32.306685 30.99038 59.960562
5241 5 31.864942 30.355758 60.613743
5242 2 22.754982 58.91676 61.676185
5243 2 23.517545 57.51156 61.439954
5244 5 23.646058 58.507242 61.568907
5245 2 26.575424 52.872227 68.266126
5246 2 27.134469 53.336906 69.709538
5247 5 27.353522 52.815723 68.869948
5248 2 34.51467 58.632936 75.090768
5249 2 33.878108 58.571788 76.575
5250 5 34.554758 58.151149 75.950712
5251 2 21.235258 56.502029 75.262001
5252 2 20.502155 55.738914 74.040481
5253 5 21.107741 56.512596 74.28381
5254 2 34.674385 39.109674 73.758236
5255 2 35.230842 39.432795 75.240749
5256 5 35.335208 39.646266 74.256846
5257 2 5.411983 46.553618 76.541148
5258 2 4.761035 47.157087 75.190598
5259 5 4.662956 47.095042 76.196111
5260 2 34.642918 35.408563 73.330293
5261 2 35.368635 34.369511 74.33309
5262 5 35.228068 35.349487 74.122342
5263 2 19.368785 5.036807 68.617096
5264 2 20.18601 3.870765 67.852643
5265 5 20.2688 4.766322 68.317027
5266 2 19.425819 28.176319 70.865225
5267 2 20.871682 28.879857 71.027738
5268 5 20.102639 28.714784 70.390673
5269 2 12.872257 8.177226 69.448924
5270 2 11.363734 8.60498 69.840436
5271 5 12.328397 8.613545 70.146831
5272 2 30.621869 18.238244 72.020957
5273 2 31.694981 18.33584 73.225448
5274 5 30.730104 18.133692 72.995936
5275 2 37.525432 27.896438 66.178869
5276 2 37.662541 26.332392 66.56209
5277 5 37.693274 27.275929 66.92722
5278 2 29.58693 55.64468 70.599091
5279 2 30.303788 54.317201 70.019601
5280 5 29.531672 54.659948 70.577175
5281 2 26.616664 29.881422 76.132579
5282 2 28.189416 29.963287 75.769749
5283 5 27.254273 29.94772 75.382718
5284 2 16.415305 37.537418 72.170012
5285 2 17.040465 38.4091 73.37883
5286 5 16.22384 37.898166 73.068028
5287 2 30.140184 16.647523 74.741767
5288 2 28.788135 16.09791 75.435875
5289 5 29.403172 16.897019 75.348229
5290 2 6.436755 9.343826 72.828639
5291 2 6.568093 10.715491 71.984139
5292 5 6.979921 10.160654 72.723788
5293 2 21.282325 8.498388 70.090719
5294 2 22.30414 8.8117 68.878438
5295 5 22.221469 8.407406 69.802688
5296 2 25.407305 21.243846 73.105475
5297 2 25.298092 22.160734 71.779095
5298 5 25.039103 22.089311 72.75498
5299 2 17.386885 49.514025 70.909285
5300 2 17.076013 48.896372 69.448546
5301 5 17.701319 49.493838 69.97443
5302 2 8.222567 39.340587 66.887964
5303 2 7.913095 40.910551 67.114543
5304 5 7.579247 40.059192 66.680652
5305 2 19.526748 10.075029 75.615068
5306 2 20.510863 11.2344 75.06801
5307 5 20.358108 10.56749 75.813948
5308 2 2.434954 41.26819 72.046589
5309 2 2.922459 39.728956 71.975937
5310 5 3.189297 40.687176 71.788482
5311 2 3.921822 39.266075 66.754157
5312 2 3.804601 39.827652 65.243268
5313 5 4.397913 39.783455 66.062142
5314 2 25.203475 37.442905 76.607061
5315 2 26.232582 37.090695 75.411744
5316 5 25.368554 36.81715 75.862473
5317 2 34.750911 5.461475 73.824693
5318 2 35.608806 6.830191 73.874986
5319 5 34.747106 6.409313 73.551162
5320 2 34.711488 60.108107 66.707701
5321 2 33.587804 60.070073 65.54676
5322 5 34.394523 59.592628 65.92857
5323 2 25.400164 27.790383 76.114248
5324 2 26.1611 26.589254 75.346028
5325 5 26.284171 27.485625 75.799788
5326 2 36.530355 56.815663 76.602898
5327 2 36.764321 56.397974 75.059301
5328 5 36.511299 56.053498 75.976821
5329 2 1.898169 47.943125 68.330638
5330 2 1.756767 47.207798 66.898439
5331 5 1.33779 47.317368 67.813305
5332 2 36.830642 38.742804 71.528781
5333 2 35.52687 38.220557 70.729199
5334 5 36.041094 38.155462 71.598603
5335 2 36.098765 16.812258 66.509228
5336 2 36.024935 17.328383 64.979503
5337 5 36.61679 17.257711 65.797574
5338 2 11.775517 39.787234 63.628271
5339 2 11.772855 40.356036 65.141002
5340 5 11.886802 39.525994 64.573046
5341 2 6.322828 5.636287 68.980796
5342 2 6.843148 6.989206 69.695479
5343 5 6.021265 6.468092 69.417135
5344 2 6.645205 18.939475 62.937305
5345 2 5.897338 20.091098 63.78957
5346 5 6.764816 19.582005 63.676276
5347 2 28.511811 9.444928 73.590152
5348 2 28.484773 9.942181 72.052653
5349 5 28.363341 9.143581 72.662587
5350 2 21.739858 25.505531 67.015854
5351 2 21.290032 25.165192 68.530358
5352 5 21.645951 24.771642 67.668403
5353 2 35.298422 22.776532 68.884177
5354 2 34.228585 22.622297 70.085657
5355 5 34.979514 23.193663 69.71936
5356 2 15.586503 51.11907 68.770875
5357 2 16.46252 50.28456 67.699389
5358 5 15.577959 50.321737 68.189997
5359 2 7.453138 59.968401 67.655541
5360 2 7.336281 60.838915 69.012171
5361 5 6.816164 60.297875 68.332994
5362 2 21.680668 12.858851 69.289206
5363 2 22.957911 12.667868 70.26084
5364 5 22.059565 13.123387 70.160807
5365 2 1.620688 54.241376 75.609798
5366 2 1.045449 54.399369 74.107788
5367 5 1.163379 54.865958 74.998246
5368 2 28.265511 46.322047 74.381007
5369 2 27.890068 46.38066 75.951836
5370 5 27.908364 45.78929 75.130572
5371 2 11.556276 58.420959 73.730668
5372 2 12.270682 57.261907 72.859968
5373 5 11.598775 58.018367 72.831033
5374 2 37.465819 33.519867 76.605282
5375 2 36.565336 32.362186 75.926458
5376 5 36.701674 33.362336 76.001546
5377 2 34.138581 55.621587 69.757789
5378 2 35.226564 54.78497 70.611172
5379 5 35.038124 55.671124 70.159786
5380 2 14.906808 26.357443 65.31552
5381 2 13.720833 25.99087 66.350404
5382 5 14.716217 25.922157 66.180062
5383 2 12.489809 46.307484 68.210307
5384 2 12.576885 45.627142 66.746939
5385 5 12.004329 45.729223 67.575363
5386 2 17.311234 28.517983 65.515257
5387 2 17.23102 27.80074 64.06922
5388 5 16.740516 28.402231 64.718945
5389 2 27.036302 32.366108 69.495369
5390 2 26.133204 31.977786 70.778145
5391 5 26.732021 31.609182 70.050082
5392 2 9.08044 55.26854 70.978135
5393 2 8.650052 53.713943 70.878687
5394 5 9.424097 54.345881 71.040039
5395 2 37.881466 31.933609 65.526843
5396 2 37.815739 32.748492 64.132733
5397 5 37.901381 31.828549 64.54613
5398 2 31.837562 1.405241 68.115404
5399 2 31.932458 1.162307 66.520451
5400 5 31.371229 0.998994 67.346816
5401 2 23.73753 26.309495 66.536453
5402 2 23.826454 25.040388 67.533124
5403 5 24.351545 25.797883 67.114785
5404 2 7.701537 28.25846 64.124965
5405 2 6.545092 29.028334 63.299239
5406 5 6.724971 28.319751 63.999297
5407 2 29.094593 58.046699 73.149317
5408 2 30.125128 58.735597 72.112344
5409 5 29.772245 57.852575 72.459147
5410 2 14.498428 48.542331 71.641029
5411 2 15.011821 49.042615 70.192568
5412 5 14.310657 49.17758 70.909981
5413 2 7.53697 36.624514 67.488436
5414 2 7.785029 37.348382 66.064927
5415 5 8.239254 36.922623 66.86301
5416 2 32.099034 42.788938 72.88758
5417 2 32.557048 42.784093 74.437449
5418 5 32.07897 43.316064 73.721226
5419 2 32.49909 22.771006 71.791754
5420 2 31.511035 22.015879 70.759559
5421 5 32.430202 21.997738 71.183033
5422 2 4.458307 54.557263 63.928113
5423 2 2.962345 54.831204 64.474877
5424 5 3.766686 54.220866 64.545955
5425 2 9.617489 41.761112 60.049507
5426 2 9.272894 41.925018 61.619948
5427 5 9.53637 42.42132 60.77805
5428 2 15.459646 59.217053 75.450673
5429 2 14.365666 58.980732 76.616544
5430 5 14.586187 59.523949 75.79143
5431 2 9.926132 22.447711 71.809257
5432 2 9.623678 22.912365 70.291194
5433 5 9.937291 23.224701 71.20148
5434 2 35.776226 12.075626 61.196071
5435 2 34.721679 12.731029 62.230611
5436 5 35.088271 11.859485 61.869296
5437 2 37.901353 35.750192 65.874479
5438 2 37.410311 35.570244 64.345299
5439 5 37.853649 35.106652 65.128281
5440 2 17.104671 35.608775 69.22733
5441 2 16.659484 35.771231 70.772423
5442 5 16.349357 35.490292 69.850782
5443 2 32.817337 42.53154 67.884275
5444 2 32.603828 41.836051 69.327398
5445 5 33.255143 41.965693 68.56352
5446 2 22.827977 53.455114 64.975566
5447 2 22.827065 52.585601 66.337859
5448 5 23.414127 53.06198 65.664844
5449 2 4.982292 21.308623 74.015591
5450 2 3.868383 22.475462 73.917661
5451 5 4.836661 22.243351 73.73576
5452 2 20.36292 31.321979 64.815022
5453 2 19.846454 30.512036 66.114695
5454 5 20.015731 30.449928 65.118695
5455 2 10.831491 50.096544 69.161737
5456 2 10.807783 49.546531 67.642257
5457 5 10.357274 49.488125 68.546778
5458 2 5.432311 23.220119 63.650849
5459 2 6.299869 22.519376 62.481149
5460 5 5.511025 22.402468 63.104515
5461 2 20.927821 51.862406 67.180497
5462 2 20.150258 51.562264 65.795864
5463 5 20.102646 52.058639 66.676701
5464 2 15.751451 57.524386 67.208908
5465 2 15.660525 55.946373 67.545812
5466 5 15.392958 56.66445 66.884525
5467 2 12.384508 43.771306 74.488801
5468 2 11.666239 42.326949 74.389722
5469 5 11.644042 43.282723 74.057261
5470 2 9.313007 22.231327 66.552489
5471 2 9.592097 22.044492 68.133342
5472 5 10.024033 22.227108 67.236342
5473 2 7.299761 24.038671 74.614051
5474 2 8.388641 24.038198 73.419801
5475 5 7.522711 24.449127 73.745115
5476 2 31.942367 25.409339 71.930172
5477 2 33.38723 25.330699 71.210393
5478 5 32.406301 25.536299 71.068849
5479 2 3.048913 22.670425 61.652626
5480 2 3.186454 21.244076 62.399959
5481 5 3.697387 21.980593 61.929834
5482 2 3.030585 48.465002 74.507013
5483 2 3.701909 49.807647 75.105784
5484 5 3.015633 49.449955 74.453396
5485 2 2.537481 31.308741 73.912169
5486 2 3.999982 31.930546 74.206011
5487 5 3.322956 31.240099 74.505084
5488 2 10.607541 17.00985 75.515926
5489 2 9.576766 16.395918 76.59874
5490 5 10.228397 16.166201 75.859054
5491 2 16.670547 42.793237 66.430518
5492 2 15.395331 42.190807 65.641344
5493 5 15.684875 42.752253 66.43221
5494 2 33.48506 32.231987 72.953372
5495 2 33.384207 33.647003 73.727617
5496 5 32.914269 32.767507 73.55391
5497 2 24.378567 19.017873 64.139919
5498 2 24.159268 19.450092 65.681669
5499 5 24.104994 18.680997 65.025867
5500 2 23.067346 57.430434 73.775941
5501 2 23.998137 57.643275 72.472015
5502 5 23.044725 57.539681 72.795745
5503 2 34.491917 13.212078 76.408541
5504 2 36.095253 13.337519 76.248934
5505 5 35.205905 13.729165 75.965739
5506 2 17.583936 33.892293 73.331293
5507 2 18.513991 32.574081 73.235334
5508 5 18.387333 33.460517 73.707262
5509 2 37.370213 47.84957 73.388178
5510 2 37.543707 49.211753 74.240382
5511 5 37.282452 48.830985 73.339666
5512 2 36.830461 1.714257 74.300406
5513 2 37.936217 0.975841 75.219068
5514 5 37.486672 0.977725 74.312187
5515 2 25.553565 56.593083 67.931508
5516 2 25.204816 56.845162 66.373713
5517 5 25.506098 57.287794 67.232685
5518 2 10.812146 52.693774 70.612131
5519 2 10.68004 52.296182 69.051246
5520 5 11.205771 52.134702 69.900985
5521 2 21.646057 42.707902 69.245391
5522 2 20.469773 43.72706 69.680786
5523 5 21.083204 42.990044 70.00488
5524 2 15.581991 46.254406 73.521138
5525 2 17.18384 46.462968 73.471349
5526 5 16.315593 46.629136 72.978334
5527 2 27.99432 15.423692 73.498933
5528 2 29.055154 16.448032 72.837682
5529 5 28.595594 15.55293 72.727572
5530 2 18.155422 61.499432 69.367133
5531 2 17.189104 60.33504 68.799405
5532 5 17.697671 60.660482 69.611792
5533 2 32.870073 27.604287 71.905543
5534 2 33.80647 28.513492 70.952441
5535 5 33.665488 27.581947 71.322407
5536 2 35.447852 7.90077 68.808768
5537 2 35.590653 8.23611 67.234268
5538 5 36.103039 8.076476 68.092466
5539 2 29.651747 11.8375 64.140781
5540 2 28.786514 12.71908 63.098628
5541 5 29.646856 12.681822 63.630559
5542 2 29.731991 52.441225 65.314147
5543 2 29.959042 52.62812 63.724992
5544 5 29.941565 51.955692 64.48134
5545 2 1.279076 38.680297 74.735031
5546 2 1.004157 37.118096 74.425448
5547 5 1.48228 37.764483 75.040355
5548 2 23.095622 59.966455 71.429776
5549 2 22.949331 59.717035 73.019834
5550 5 23.58569 59.999966 72.285311
5551 2 17.239711 30.53216 72.618561
5552 2 18.087181 29.199347 72.276073
5553 5 17.993517 29.972851 72.922173
5554 2 33.264529 40.80015 73.803895
5555 2 32.855128 40.828481 72.240731
5556 5 32.922869 40.243887 73.064253
5557 2 14.166261 58.807485 68.231584
5558 2 15.403991 59.690014 67.682892
5559 5 14.57724 59.70364 68.266694
5560 2 17.882812 44.800334 60.58764
5561 2 18.181482 43.230778 60.830925
5562 5 17.812447 44.074164 61.251687
5563 2 12.232589 19.733021 64.508004
5564 2 11.397907 18.389327 64.176812
5565 5 12.271788 18.875816 64.021288
5566 2 2.283928 13.420002 65.541416
5567 2 2.23168 14.110963 64.081369
5568 5 2.757927 13.485869 64.678736
5569 2 32.126781 4.517645 76.645673
5570 2 31.593722 2.992141 76.669761
5571 5 31.469948 3.90154 76.242912
5572 2 8.679717 36.844433 72.866525
5573 2 8.446629 35.983583 74.214302
5574 5 8.764832 35.941344 73.254359
5575 2 13.477537 13.384085 69.443374
5576 2 14.743972 14.229462 69.985015
5577 5 14.41564 13.304399 69.738067
5578 2 24.173583 22.62804 63.435862
5579 2 23.978194 21.183248 64.133212
5580 5 23.506592 21.930093 63.638901
5581 2 1.847604 58.548165 69.167386
5582 2 0.996154 59.384867 68.077956
5583 5 1.484331 59.442257 68.962782
5584 2 23.272845 43.452171 75.16705
5585 2 23.516204 44.12333 76.616953
5586 5 22.838039 43.65553 76.02892
5587 2 3.206431 40.8328 61.911407
5588 2 3.104588 41.767988 60.597274
5589 5 2.581712 41.173959 61.228351
5590 2 5.089446 47.588256 73.049431
5591 2 4.592701 46.093254 72.688724
5592 5 4.309151 47.062836 72.752273
5593 2 22.492432 16.027962 74.955519
5594 2 22.25311 14.609709 74.218513
5595 5 21.833249 15.503057 74.442506
5596 2 23.687934 11.057981 75.398863
5597 2 22.565605 11.636 74.38982
5598 5 23.082594 11.820624 75.24021
5599 2 30.216374 41.712275 64.702323
5600 2 30.055286 41.555316 66.302732
5601 5 30.615325 41.293225 65.501364
5602 2 2.774358 59.769291 66.841746
5603 2 3.624 59.767412 68.216519
5604 5 3.344501 60.327982 67.421429
5605 2 34.350568 54.241338 68.057082
5606 2 34.164529 53.298688 69.35658
5607 5 34.312611 53.301729 68.355286
5608 2 0.996257 54.698942 65.455596
5609 2 2.125914 54.391086 66.569595
5610 5 1.508442 53.973311 65.884964
5611 2 33.587197 55.534406 71.873361
5612 2 32.576466 54.623657 71.001091
5613 5 33.317193 54.603315 71.690611
5614 2 6.667973 9.449162 75.067528
5615 2 7.118798 9.698118 76.599413
5616 5 6.554018 10.053962 75.838541
5617 2 37.141727 22.877875 70.080722
5618 2 37.76752 22.68481 68.603223
5619 5 37.90668 23.119647 69.506594
5620 2 28.621073 45.9176 70.004555
5621 2 28.583978 44.302579 69.957351
5622 5 28.020605 45.136971 70.06189
5623 2 5.941787 2.655861 66.719371
5624 2 5.123246 1.594879 65.81593
5625 5 5.512416 1.7678 66.734175
5626 2 9.113171 18.182137 68.909933
5627 2 7.824759 17.326437 68.441247
5628 5 8.128764 18.140902 68.959662
5629 2 26.645294 51.918071 73.549729
5630 2 26.237146 51.089688 74.876038
5631 5 26.978461 51.611994 74.426398
5632 2 35.908007 6.060564 67.243258
5633 2 36.586139 6.753276 65.950129
5634 5 36.094014 5.933708 66.282769
5635 2 35.182673 44.398354 71.683009
5636 2 34.597592 45.75028 71.018276
5637 5 34.377275 44.796419 71.275445
5638 2 35.301459 22.476738 66.705565
5639 2 36.382953 23.591265 67.152884
5640 5 35.635911 23.382382 66.502635
5641 2 10.75225 31.001307 67.470469
5642 2 11.405486 29.871279 66.517467
5643 5 10.99549 30.796516 66.536593
5644 2 27.843849 53.129225 75.770653
5645 2 26.542862 52.654174 76.603512
5646 5 27.527813 52.482681 76.445437
5647 2 13.105091 42.434738 72.05358
5648 2 13.694442 41.640645 73.331852
5649 5 13.420577 42.5498 72.98119
5650 2 4.877397 38.957764 74.223268
5651 2 4.297834 37.637371 73.493498
5652 5 5.133891 38.079694 73.853897
5653 2 22.622585 28.845589 73.932525
5654 2 23.477749 28.370655 72.646046
5655 5 23.0605 28.065681 73.516345
5656 2 25.57379 16.908287 64.647759
5657 2 25.056206 16.584254 66.144089
5658 5 25.876786 16.726874 65.568907
5659 2 3.753145 40.655773 75.158285
5660 2 3.758382 41.511098 73.78705
5661 5 3.353331 41.439424 74.711887
5662 2 1.734144 23.96196 67.573684
5663 2 2.006872 24.673033 68.999129
5664 5 2.206975 23.858006 68.433251
5665 2 15.421561 0.984635 74.477266
5666 2 15.535727 1.139795 72.872652
5667 5 16.061951 1.008108 73.727213
5668 2 29.424918 31.145537 70.02465
5669 2 29.917618 31.304224 71.55565
5670 5 29.778292 30.64663 70.79889
5671 2 35.119379 45.887712 66.798739
5672 2 33.531238 45.85078 67.095957
5673 5 34.2354 46.084271 66.407361
5674 2 22.395205 22.798114 60.430758
5675 2 21.064642 22.475658 61.289547
5676 5 21.968811 22.119676 61.006206
5677 2 24.151413 15.931123 62.054403
5678 2 24.428703 17.52322 62.0392
5679 5 24.055251 16.757098 62.585203
5680 2 15.486869 34.366267 73.823341
5681 2 15.952683 35.177865 75.140999
5682 5 15.973778 35.167938 74.129078
5683 2 21.790985 55.592198 68.266271
5684 2 21.965666 57.178244 68.522868
5685 5 21.351792 56.467302 68.14571
5686 2 5.307855 41.970834 65.142077
5687 2 5.383408 42.431909 63.594951
5688 5 5.700597 42.640416 64.533271
5689 2 36.249709 33.339348 66.415903
5690 2 35.717623 34.429816 65.348354
5691 5 36.286126 33.600564 65.465287
5692 2 8.210712 56.988067 66.649329
5693 2 8.334979 56.580524 65.090367
5694 5 8.823907 56.608437 65.976199
5695 2 18.307648 40.572432 67.709611
5696 2 19.016942 39.636326 68.819792
5697 5 18.252844 39.695721 68.158616
5698 2 18.617662 20.729202 61.972229
5699 2 19.248748 21.358103 60.623856
5700 5 19.466545 20.983038 61.538415
5701 2 31.134671 34.920496 76.365277
5702 2 30.341551 33.527196 76.569167
5703 5 31.250949 33.970292 76.603652
5704 2 12.407302 25.483224 72.738449
5705 2 10.993589 25.004378 73.358142
5706 5 11.710731 24.787293 72.677621
5707 2 31.620298 49.079651 65.511461
5708 2 32.708003 49.045736 64.316621
5709 5 31.902906 49.536869 64.684227
5710 2 7.599343 10.315784 64.653687
5711 2 7.042 9.888713 63.198051
5712 5 6.85169 9.867393 64.19196
5713 2 25.453736 18.957378 70.990797
5714 2 26.091924 18.864954 72.472711
5715 5 25.623959 19.474221 71.813675
5716 2 9.184229 21.62368 75.313673
5717 2 8.527837 21.879211 73.859111
5718 5 8.820162 22.322938 74.720609
5719 2 36.07594 52.361621 67.439993
5720 2 36.961554 52.075447 68.761238
5721 5 36.050548 51.952852 68.337486
5722 2 23.785596 43.814027 73.054371
5723 2 23.848304 44.985573 71.942865
5724 5 24.388097 44.279214 72.426817
5725 2 24.825662 27.220539 64.857331
5726 2 25.204595 27.180155 63.286766
5727 5 24.552856 27.548714 63.967888
5728 2 23.954214 17.562431 75.544629
5729 2 22.436639 18.084735 75.734522
5730 5 23.282602 17.816321 76.22117
5731 2 36.076943 57.71884 72.34571
5732 2 36.295407 58.192751 73.875277
5733 5 35.840386 58.418476 72.999759
5734 2 31.471776 4.107386 65.408905
5735 2 32.300386 3.330757 66.558751
5736 5 31.699288 3.211316 65.753181
5737 2 9.027385 47.676518 68.871842
5738 2 10.354971 46.816073 68.54162
5739 5 9.584805 47.33155 68.13461
5740 2 6.551393 29.78692 69.457721
5741 2 6.191089 29.047995 68.066295
5742 5 6.531769 28.908488 69.009164
5743 2 15.902168 19.132617 61.877678
5744 2 16.570259 20.360752 62.688378
5745 5 15.92065 19.587217 62.753023
5746 2 8.675318 44.516661 74.826874
5747 2 9.540506 44.438555 76.189682
5748 5 9.362344 43.989978 75.299983
5749 2 18.845096 36.026306 62.372423
5750 2 19.793631 36.119236 61.067225
5751 5 19.643434 35.636108 61.943899
5752 2 1.02941 22.329224 74.246631
5753 2 1.005025 22.088894 75.844611
5754 5 1.102079 22.786558 75.117719
5755 2 3.25887 10.590814 76.602483
5756 2 3.9116 11.283225 75.296188
5757 5 4.065122 11.051571 76.269478
5758 2 10.926183 56.203064 64.704995
5759 2 12.531577 56.172368 64.888469
5760 5 11.664475 56.521899 65.276397
5761 2 37.885693 37.631792 63.130628
5762 2 37.900772 39.117675 62.49516
5763 5 37.387781 38.482639 63.093572
5764 2 31.03761 22.853231 66.667546
5765 2 30.551224 21.448216 67.300995
5766 5 30.489079 22.455052 67.384343
5767 2 15.852028 48.444246 76.434233
5768 2 16.0584 49.922384 75.81422
5769 5 16.265876 49.323625 76.603504
5770 2 13.071888 60.862334 66.004984
5771 2 12.366982 60.87082 64.550704
5772 5 12.547337 60.312755 65.375667
5773 2 9.524341 59.604164 67.050227
5774 2 8.656002 59.60009 65.687191
5775 5 9.021312 59.021598 66.433128
5776 2 32.522177 19.990242 72.083905
5777 2 32.213105 20.638558 73.531681
5778 5 31.827385 20.445665 72.615963
5779 2 5.373006 62.154969 72.138241
5780 2 4.643077 61.124189 71.129979
5781 5 4.55959 62.018289 71.597035
5782 2 26.884494 62.121992 72.269685
5783 2 26.278431 62.160409 73.767386
5784 5 26.65892 61.558916 73.047691
5785 2 12.974914 10.370848 73.940309
5786 2 14.109264 9.371023 73.369788
5787 5 13.811435 10.337179 73.418458
5788 2 15.700237 3.559274 71.734055
5789 2 15.55719 3.688364 70.129446
5790 5 16.159056 3.877836 70.920891
5791 2 8.683874 14.115354 63.531133
5792 2 7.738774 13.874541 64.81981
5793 5 8.17035 13.429265 64.019811
5794 2 19.737175 5.199314 63.594063
5795 2 18.307399 5.01346 64.324195
5796 5 19.310047 5.009239 64.462777
5797 2 6.202348 55.922287 64.704608
5798 2 5.220425 56.653777 63.649787
5799 5 5.364025 56.436647 64.627929
5800 2 10.967578 29.139827 64.489973
5801 2 9.917125 27.91298 64.547348
5802 5 10.243975 28.741032 65.029039
5803 2 18.853675 3.002967 76.174587
5804 2 17.534724 3.887193 75.873909
5805 5 18.162163 3.563857 76.599375
5806 2 16.221459 21.810964 70.170646
5807 2 16.705636 23.263162 69.65239
5808 5 16.721655 22.270496 69.455198
5809 2 14.104235 24.325822 76.445536
5810 2 15.128318 24.936853 75.35476
5811 5 14.30012 25.127251 75.904637
5812 2 15.997202 24.276967 61.639268
5813 2 14.75672 23.290225 61.954612
5814 5 15.765917 23.360053 61.92035
5815 2 7.586083 29.649573 76.195237
5816 2 7.627838 31.252031 76.400856
5817 5 8.109895 30.383533 76.595431
5818 2 11.658048 59.813553 67.325462
5819 2 12.454477 60.105051 68.701189
5820 5 11.573652 60.226339 68.217492
5821 2 1.021403 58.00065 76.428576
5822 2 1.948999 57.433839 75.232671
5823 5 1.46022 57.187063 76.083979
5824 2 28.472195 55.723227 62.75513
5825 2 26.859234 55.802029 62.69154
5826 5 27.706566 55.800882 62.137867
5827 2 17.537672 2.055231 65.495191
5828 2 17.720374 1.346085 64.054487
5829 5 17.410335 1.206946 65.007925
5830 2 37.898302 2.095709 66.04669
5831 2 36.448858 1.421418 66.28405
5832 5 36.927772 2.260984 65.983554
5833 2 35.842905 24.190178 61.762571
5834 2 35.522745 22.969392 60.753079
5835 5 36.165021 23.30891 61.457874
5836 2 27.003636 55.619438 66.581912
5837 2 28.608046 55.794024 66.667263
5838 5 27.719809 56.254281 66.821292
5839 2 15.970136 14.550223 64.457618
5840 2 15.96409 15.912706 65.326812
5841 5 15.387914 15.162186 64.967274
5842 2 8.032242 23.666854 65.473749
5843 2 7.588254 23.949258 67.001826
5844 5 7.29453 23.551698 66.118537
5845 2 5.339238 54.043385 66.932238
5846 2 5.859111 53.766808 65.427203
5847 5 5.616045 53.331373 66.308022
5848 2 13.531149 42.224112 75.55156
5849 2 13.16988 43.41861 76.578476
5850 5 12.910109 42.490081 76.270449
5851 2 31.890815 17.947255 61.268978
5852 2 31.864049 16.547675 62.076664
5853 5 32.227164 17.0199 61.258325
5854 2 9.054761 12.831167 72.1043
5855 2 8.172091 14.136988 71.747061
5856 5 8.648098 13.332685 71.358421
5857 2 32.14164 10.844539 67.545265
5858 2 31.505998 10.894495 66.06022
5859 5 32.190974 11.311642 66.677733
5860 2 13.824778 22.440732 65.00122
5861 2 14.096729 20.85447 64.853872
5862 5 13.378596 21.565413 64.911953
5863 2 15.920179 37.920501 75.933733
5864 2 16.622338 39.343533 75.627383
5865 5 16.007119 38.6312 75.255072
5866 2 13.716036 33.889395 72.584722
5867 2 14.21378 34.240408 71.087746
5868 5 14.473766 33.79712 71.959773
5869 2 13.541161 49.599149 67.735311
5870 2 12.921978 49.41187 69.216335
5871 5 12.871862 49.095265 68.256243
5872 2 7.015884 50.150668 59.831538
5873 2 7.665339 50.969884 61.064009
5874 5 7.096948 51.049378 60.230259
5875 2 3.07992 57.774549 65.860457
5876 2 3.838668 56.90034 66.988266
5877 5 3.541163 56.917384 66.020936
5878 2 28.474162 28.440672 72.620063
5879 2 29.084021 29.192821 73.913987
5880 5 29.311835 28.625528 73.107261
5881 2 25.914362 48.209322 66.212919
5882 2 26.358875 48.559428 67.726765
5883 5 26.129907 48.953887 66.82316
5884 2 11.17525 16.163194 73.073659
5885 2 10.180378 17.396189 73.392796
5886 5 11.148016 17.099338 73.383697
5887 2 7.849672 31.656209 72.79543
5888 2 7.187452 31.461137 74.256699
5889 5 7.276889 31.058736 73.332253
5890 2 33.704388 18.886533 67.848739
5891 2 34.091829 17.551199 67.024924
5892 5 33.347379 18.028732 67.517148
5893 2 34.041101 45.69679 61.466976
5894 2 33.573932 46.062842 62.97019
5895 5 33.494156 45.382156 62.225321
5896 2 32.784003 48.918984 76.602689
5897 2 33.406416 47.539524 76.035601
5898 5 32.557192 47.993389 76.347616
5899 2 31.299794 30.096224 72.771032
5900 2 31.738805 29.627372 71.288014
5901 5 31.188548 29.380756 72.100987
5902 2 16.399067 22.83154 75.353956
5903 2 16.62015 22.427588 73.804814
5904 5 16.77436 22.1372 74.762113
5905 2 27.713644 54.740112 71.814798
5906 2 29.049172 54.91224 72.70846
5907 5 28.040443 54.995853 72.7098
5908 2 25.078801 41.062993 69.429392
5909 2 25.483016 41.03164 67.864936
5910 5 25.549377 40.532923 68.743232
5911 2 11.73011 27.782238 74.117235
5912 2 12.348583 27.601486 75.599367
5913 5 11.507241 27.521822 75.0423
5914 2 8.506779 5.183776 67.540977
5915 2 8.285812 4.644477 69.048367
5916 5 8.966032 5.01718 68.398044
5917 2 9.09888 12.199014 67.238689
5918 2 7.891015 12.143646 66.166359
5919 5 8.208209 12.567726 67.028954
5920 2 15.418168 24.419329 63.816087
5921 2 14.9404 25.787108 63.099976
5922 5 15.716774 25.322127 63.553368
5923 2 2.558322 57.210862 62.397869
5924 2 1.797804 56.502104 63.635274
5925 5 2.644912 56.504669 63.081262
5926 2 25.923799 54.767273 73.265743
5927 2 25.755902 53.618914 72.141031
5928 5 25.645405 53.831448 73.124467
5929 2 18.394486 41.660352 72.746366
5930 2 18.218869 40.067772 72.534839
5931 5 18.043824 40.977393 72.126823
5932 2 2.578929 7.506483 65.563348
5933 2 0.999543 7.432842 65.898029
5934 5 1.785179 8.056835 65.764105
5935 2 23.953628 14.478425 76.406838
5936 2 22.372423 14.146877 76.364828
5937 5 23.281833 13.870119 76.017112
5938 2 13.279092 58.431298 66.25158
5939 2 14.395621 58.306707 65.089799
5940 5 14.228272 58.601583 66.043512
5941 2 18.039405 31.29914 64.641434
5942 2 18.009219 32.3756 63.436354
5943 5 18.317658 32.210538 64.386168
5944 2 10.301068 44.373251 66.562791
5945 2 10.631931 45.705296 65.709514
5946 5 9.947709 44.97608 65.866396
5947 2 35.806686 15.646317 63.578851
5948 2 35.905332 15.633264 61.965781
5949 5 36.005401 15.071716 62.80195
5950 2 16.821896 28.201539 69.490326
5951 2 16.439842 28.400779 71.047963
5952 5 16.117708 28.034992 70.160857
5953 2 30.940396 20.223703 60.638861
5954 2 32.143706 21.26047 60.34044
5955 5 31.155937 21.182004 60.547037
5956 2 30.816522 14.789863 66.554434
5957 2 30.090921 14.619747 67.98847
5958 5 30.162297 14.24376 67.051418
5959 2 27.183721 8.376788 75.617428
5960 2 26.291454 7.457802 76.602933
5961 5 26.586297 7.592181 75.644007
5962 2 5.740155 38.07637 66.412775
5963 2 4.96021 36.663109 66.33355
5964 5 5.543085 37.251003 66.915929
5965 2 19.38546 52.928464 68.843081
5966 2 19.785143 52.059191 70.145584
5967 5 19.759242 52.992136 69.753829
5968 2 23.390445 0.997997 71.626867
5969 2 22.2892 2.01392 72.232718
5970 5 22.421325 1.173141 71.684848
5971 2 23.624941 20.727084 71.754137
5972 2 22.309951 20.117927 72.469416
5973 5 23.034568 20.821228 72.538884
5974 2 30.000679 7.933268 63.832849
5975 2 29.517169 7.839773 62.293572
5976 5 29.807922 8.47161 63.028943
5977 2 26.259399 29.169527 69.886051
5978 2 26.725162 29.038802 71.428086
5979 5 26.937155 29.469661 70.537048
5980 2 12.508424 34.052854 75.24241
5981 2 11.550553 33.826608 76.524281
5982 5 12.098495 33.35996 75.812574
5983 2 15.278797 48.716486 66.713786
5984 2 15.372614 48.134689 68.218647
5985 5 15.851835 48.201047 67.329562
5986 2 22.413897 56.147003 62.766837
5987 2 21.944546 54.600735 62.792488
5988 5 22.659558 55.249897 63.095594
5989 2 14.988322 39.625583 72.481143
5990 2 16.284709 39.794047 71.530935
5991 5 15.365274 39.377117 71.603987
5992 2 11.596213 47.407316 63.699133
5993 2 10.209358 46.578182 63.731786
5994 5 11.197104 46.523596 63.517528
5995 2 30.903393 28.220569 61.42906
5996 2 31.262598 28.163005 63.003719
5997 5 31.45512 28.639262 62.131572
5998 2 9.522051 2.344059 65.493177
5999 2 8.166435 1.793028 66.179154
6000 5 8.927836 1.558972 65.554643
6001 2 15.055576 47.429894 62.048284
6002 2 16.460177 47.918779 62.680727
6003 5 15.531925 47.579413 62.899147
6004 2 6.944583 46.674037 66.404469
6005 2 6.837441 45.276899 65.599223
6006 5 7.402535 46.104463 65.741826
6007 2 8.359802 7.500053 72.946169
6008 2 7.208145 7.194432 71.8543
6009 5 7.389414 7.360481 72.836184
6010 2 35.903596 10.037514 64.752692
6011 2 36.675677 9.897945 66.165599
6012 5 36.518814 10.501741 65.368509
6013 2 35.275791 42.863507 74.271942
6014 2 34.296244 42.864142 72.986491
6015 5 34.577347 43.383672 73.808438
6016 2 21.703717 23.190445 69.426197
6017 2 23.177318 22.815579 68.878592
6018 5 22.647616 23.091984 69.695625
6019 2 28.785324 19.490121 74.146829
6020 2 28.628819 18.948558 72.632196
6021 5 28.167041 19.032728 73.52897
6022 2 31.143179 60.167253 65.004283
6023 2 31.216039 59.075437 66.193622
6024 5 31.481698 59.270204 65.236533
6025 2 7.57014 8.432022 65.792898
6026 2 8.072661 7.129863 66.607608
6027 5 7.661123 7.451103 65.740446
6028 2 11.249727 0.996 76.167126
6029 2 9.806706 1.210788 75.471819
6030 5 10.806372 1.213556 75.313114
6031 2 18.249878 7.73971 61.179213
6032 2 19.696965 7.718668 60.459912
6033 5 19.220341 7.786187 61.350305
6034 2 37.919382 1.950514 69.390105
6035 2 37.537061 0.991274 68.146889
6036 5 37.234754 1.325121 69.053357
6037 2 3.377453 29.536454 70.045161
6038 2 3.841849 29.988478 68.564652
6039 5 3.58012 29.198469 69.14077
6040 2 2.231414 51.515119 69.265451
6041 2 3.230104 50.899723 68.153785
6042 5 2.740105 50.706829 69.018203
6043 2 5.246295 35.047092 63.781219
6044 2 3.643816 34.846431 63.720475
6045 5 4.389143 35.53127 63.717251
6046 2 24.647091 59.691773 66.328607
6047 2 23.090316 59.742671 65.897613
6048 5 23.804275 60.187158 66.460837
6049 2 30.908241 13.173569 70.399263
6050 2 32.206118 12.229671 70.208301
6051 5 31.743738 12.878282 70.83283
6052 2 9.248708 25.058276 69.973778
6053 2 8.797702 25.076588 71.5256
6054 5 8.524884 24.798059 70.591513
6055 2 32.605464 9.910883 73.512293
6056 2 31.651449 9.980929 72.209663
6057 5 31.738847 10.247422 73.182222
6058 2 7.996779 58.17012 61.754338
6059 2 7.534373 59.641215 62.238027
6060 5 7.23293 58.79415 61.773117
6061 2 30.136756 10.398527 70.671374
6062 2 30.219141 11.590239 71.759919
6063 5 29.783133 11.29151 70.896678
6064 2 14.223267 33.320736 76.405511
6065 2 14.108856 34.931191 76.477895
6066 5 14.719242 34.140382 76.640924
6067 2 5.216361 51.840687 68.29489
6068 2 6.775197 51.637456 68.66989
6069 5 6.13548 51.98781 67.968077
6070 2 31.286489 54.409142 61.526523
6071 2 30.578341 55.001465 62.853014
6072 5 30.440998 54.421826 62.034672
6073 2 18.253547 20.742981 69.640402
6074 2 17.8091 20.677451 71.192842
6075 5 18.385838 21.167763 70.520908
6076 2 25.943671 44.16817 61.962486
6077 2 26.049237 45.277708 60.792154
6078 5 26.580413 44.65351 61.386086
6079 2 37.947735 25.299403 69.799163
6080 2 37.87534 24.91392 68.231344
6081 5 37.620005 25.608802 68.921612
6082 2 5.807151 3.511048 68.74124
6083 2 4.413985 3.70714 69.536558
6084 5 5.422228 3.724206 69.624206
6085 2 32.413181 56.777289 70.491931
6086 2 31.760546 55.833638 69.353737
6087 5 31.556099 56.488815 70.097694
6088 2 37.086719 19.38162 72.980375
6089 2 35.620551 18.72134 72.818274
6090 5 36.613315 18.526264 72.848143
6091 2 9.621514 45.411865 70.066456
6092 2 10.110446 44.63686 68.735214
6093 5 9.645742 44.528526 69.627873
6094 2 4.411357 10.416863 71.060834
6095 2 4.635213 10.474352 69.461309
6096 5 4.655254 11.016102 70.31608
6097 2 25.335504 33.612868 72.013009
6098 2 23.823172 33.859084 71.499077
6099 5 24.427884 33.226312 72.007458
6100 2 1.628276 36.219423 68.453482
6101 2 1.628396 37.15975 69.767894
6102 5 1.714171 37.153386 68.759366
6103 2 23.485267 7.841083 72.817035
6104 2 22.777091 9.159046 73.428065
6105 5 23.614112 8.590183 73.445906
6106 2 12.077062 26.783459 69.64082
6107 2 11.625846 28.279216 70.054355
6108 5 12.413429 27.648304 69.97568
6109 2 21.696415 46.658661 68.129932
6110 2 20.681363 47.280593 69.222986
6111 5 20.935587 46.440525 68.71882
6112 2 8.582372 18.093513 63.545313
6113 2 8.820952 19.218384 62.409689
6114 5 9.151845 18.335064 62.776817
6115 2 18.419563 21.563474 64.752187
6116 2 19.119992 22.381307 63.547014
6117 5 18.319299 22.350178 64.165438
6118 2 29.385111 44.434586 59.947216
6119 2 28.986303 44.718218 61.487476
6120 5 28.640674 44.393524 60.593249
6121 2 32.94323 51.440164 75.744199
6122 2 34.543887 51.396336 75.525403
6123 5 33.761838 50.943102 75.980931
6124 2 28.594878 21.55801 73.424233
6125 2 27.484337 20.846505 72.490233
6126 5 27.696421 21.673744 73.033577
6127 2 14.895286 23.419714 70.89342
6128 2 13.707297 24.43464 71.306341
6129 5 14.679561 24.37236 71.031838
6130 2 31.681656 17.054588 70.495117
6131 2 30.561208 16.173861 71.257228
6132 5 30.897254 16.473961 70.350839
6133 2 23.55918 7.19585 67.019164
6134 2 21.981254 7.175987 66.670378
6135 5 22.748287 7.756669 66.985013
6136 2 25.485206 61.81509 64.218194
6137 2 24.922663 61.933842 65.728604
6138 5 24.827206 61.439931 64.850272
6139 2 10.912357 51.036154 63.801757
6140 2 9.56267 50.733171 64.637485
6141 5 10.48601 50.386641 64.409697
6142 2 26.262626 22.096212 63.005795
6143 2 26.873471 22.605436 61.598864
6144 5 27.106054 22.288782 62.531689
6145 2 20.585293 13.330412 65.545935
6146 2 21.86731 13.086152 64.592695
6147 5 21.081451 12.638685 65.047365
6148 2 7.032125 46.510585 70.673475
6149 2 6.933928 47.924385 71.450278
6150 5 6.457297 47.050654 71.266036
6151 2 6.416525 5.007097 66.876065
6152 2 7.385288 5.271947 65.60987
6153 5 6.876293 4.564064 66.124023
6154 2 10.168855 60.955456 64.568873
6155 2 10.297225 60.389071 63.060687
6156 5 9.844699 60.253721 63.955912
6157 2 10.819052 18.72915 61.394482
6158 2 10.154852 19.751271 60.333349
6159 5 10.863697 19.039775 60.459201
6160 2 18.249315 10.612173 61.2159
6161 2 18.504089 10.167003 59.683317
6162 5 18.128279 9.871574 60.575514
6163 2 2.821639 1.541989 71.344263
6164 2 2.677132 2.804414 72.342909
6165 5 2.387977 2.421554 71.451655
6166 2 10.265322 7.760989 75.385267
6167 2 8.684107 8.088274 75.452633
6168 5 9.473658 7.961975 74.832
6169 2 5.247673 14.999846 62.992207
6170 2 6.734345 15.342088 63.525661
6171 5 6.199457 14.759753 62.893752
6172 2 13.438883 21.823247 68.555031
6173 2 13.795033 21.297096 67.069024
6174 5 13.367201 21.04626 67.951389
6175 2 18.953859 22.284905 74.475019
6176 2 19.167997 21.862075 72.929944
6177 5 18.676923 21.635846 73.785628
6178 2 33.26448 58.105746 60.372875
6179 2 33.454294 57.633837 61.906879
6180 5 33.924089 57.758393 61.019013
6181 2 17.800434 57.706922 62.617444
6182 2 17.032411 56.576055 61.755367
6183 5 17.621519 57.397148 61.698063
6184 2 9.619197 22.549479 64.395948
6185 2 8.180669 22.402352 63.674222
6186 5 8.887459 21.914508 64.209931
6187 2 10.236973 42.225933 72.729791
6188 2 10.082235 42.936807 71.286665
6189 5 10.458683 43.041181 72.220432
6190 2 22.15481 41.066603 75.089814
6191 2 22.65737 40.901363 76.616911
6192 5 22.837659 41.365882 75.735863
6193 2 1.330681 54.999367 69.545243
6194 2 1.933398 54.763777 71.026163
6195 5 1.912838 55.395946 70.235931
6196 2 21.229181 45.103131 75.361908
6197 2 21.53093 46.069023 76.622025
6198 5 20.853642 45.43988 76.20973
6199 2 4.455427 27.496696 73.065857
6200 2 3.914108 27.49152 71.543083
6201 5 3.71384 27.79504 72.487696
6202 2 30.098378 34.760383 72.079294
6203 2 30.910095 33.372777 72.245305
6204 5 30.006199 33.816154 72.349786
6205 2 11.660344 3.204586 75.701578
6206 2 10.430679 3.825251 76.546914
6207 5 11.257852 3.244437 76.601379
6208 2 35.414846 36.26601 61.705072
6209 2 36.344715 37.26077 60.834618
6210 5 36.077412 36.993703 61.773634
6211 2 22.032278 37.365856 76.594069
6212 2 22.594498 36.97799 75.129363
6213 5 22.378843 36.618871 76.050804
6214 2 9.846436 51.25044 61.020943
6215 2 9.235766 51.571632 62.482386
6216 5 9.573683 51.983744 61.621861
6217 2 26.317823 9.957999 72.640516
6218 2 25.647426 10.139991 71.181289
6219 5 26.364375 10.484259 71.80738
6220 2 33.501873 10.654644 71.035319
6221 2 33.345835 9.970253 69.579586
6222 5 33.101263 9.889561 70.558464
6223 2 25.27388 47.881235 76.607471
6224 2 24.087088 46.784232 76.60541
6225 5 24.73008 47.303559 76.021125
6226 2 37.89807 53.357835 72.41512
6227 2 37.219288 53.382607 70.948649
6228 5 37.358792 53.910367 71.801019
6229 2 33.691833 19.129294 75.887406
6230 2 33.772524 19.025081 74.276653
6231 5 33.33259 19.507553 75.050091
6232 2 22.774509 44.206514 65.983778
6233 2 22.832501 44.437974 67.582202
6234 5 22.3162 44.648373 66.737399
6235 2 23.92855 25.017964 63.02147
6236 2 23.513081 25.446667 64.523301
6237 5 23.181599 25.023011 63.665885
6238 2 12.019494 60.940214 74.412477
6239 2 11.568111 60.843375 75.961274
6240 5 11.633725 60.334422 75.088812
6241 2 12.290974 25.464122 75.073191
6242 2 11.882714 25.73345 76.613542
6243 5 11.658886 25.199891 75.783035
6244 2 27.784928 50.806584 67.370393
6245 2 27.880499 51.20309 65.806569
6246 5 28.080652 51.513432 66.748988
6247 2 34.553769 16.565301 75.395006
6248 2 33.894323 15.716144 76.601637
6249 5 34.744172 15.877401 76.076013
6250 2 33.589087 4.865708 71.765308
6251 2 32.981838 3.822083 70.691068
6252 5 32.856914 4.222489 71.612261
6253 2 6.768424 2.83311 71.122152
6254 2 8.37938 2.960669 71.101001
6255 5 7.540669 3.199015 71.615085
6256 2 2.809741 36.016684 71.739353
6257 2 2.565815 37.563386 72.139485
6258 5 2.110469 36.678645 71.953961
6259 2 11.845093 32.344732 72.800441
6260 2 12.381305 32.504493 71.284245
6261 5 12.396009 31.912798 72.105347
6262 2 15.193347 26.349087 71.862837
6263 2 15.259937 25.459707 73.210599
6264 5 15.768748 25.737776 72.380951
6265 2 10.851103 30.395879 73.081956
6266 2 11.302425 29.46134 71.84307
6267 5 11.222977 29.511831 72.850872
6268 2 25.531545 6.042893 71.509361
6269 2 25.422622 7.604227 71.106536
6270 5 26.061612 6.861538 71.360766
6271 2 10.29405 26.764286 70.931376
6272 2 11.384955 27.287113 72.003044
6273 5 10.73028 26.545494 71.788735
6274 2 16.18043 21.543125 65.022407
6275 2 15.503237 22.033026 63.639185
6276 5 16.053674 22.326493 64.43632
6277 2 18.939581 9.330372 69.183721
6278 2 18.003631 8.149268 69.767576
6279 5 18.959114 8.430167 69.586809
6280 2 7.527183 12.807812 73.687809
6281 2 6.604331 11.636 74.309981
6282 5 6.696319 12.294874 73.547124
6283 2 25.279829 56.918002 70.084605
6284 2 26.108848 55.631566 70.603938
6285 5 25.283641 56.19709 70.75803
6286 2 28.390369 36.633777 73.349886
6287 2 27.871992 36.499106 71.825076
6288 5 27.694353 36.224594 72.782998
6289 2 20.832877 30.278362 72.724882
6290 2 19.816131 30.668623 71.530805
6291 5 20.004757 30.773689 72.519698
6292 2 32.131421 33.149415 68.448645
6293 2 30.75382 33.90388 68.829292
6294 5 31.149264 33.057031 68.440707
6295 2 22.816462 34.823563 74.73841
6296 2 22.62618 34.756332 73.134924
6297 5 22.158458 34.644383 74.025559
6298 2 30.261022 56.533583 75.760947
6299 2 30.726194 57.348479 74.445099
6300 5 30.156798 56.582064 74.781142
6301 2 28.140648 26.784472 74.086361
6302 2 29.207343 26.219906 73.011501
6303 5 28.221904 26.335519 73.211679
6304 2 20.981389 58.240047 66.882494
6305 2 21.510683 58.308988 65.357047
6306 5 21.749444 58.029701 66.30019
6307 2 27.28385 59.536844 70.529087
6308 2 27.344602 59.450914 72.141793
6309 5 27.88411 59.636182 71.30565
6310 2 18.972023 14.777951 65.174181
6311 2 18.276083 14.575864 63.729631
6312 5 18.132132 14.910597 64.673962
6313 2 10.597237 16.763143 65.426038
6314 2 9.642575 15.83754 64.507466
6315 5 9.902599 16.791018 64.726087
6316 2 30.524593 58.525475 69.959933
6317 2 29.812253 59.93666 70.296122
6318 5 29.823802 59.150855 69.658232
6319 2 4.694763 20.176042 66.150289
6320 2 4.524932 19.331452 67.517666
6321 5 5.117887 19.483874 66.711627
6322 2 13.922945 32.591255 69.658583
6323 2 14.253072 31.464417 70.769055
6324 5 14.644406 32.025784 70.023232
6325 2 7.99251 15.734555 60.729805
6326 2 7.24008 16.943779 61.493691
6327 5 7.286213 15.938206 61.387758
6328 2 2.547642 43.981456 73.919649
6329 2 2.975293 45.330503 74.700085
6330 5 3.195207 44.351739 74.565235
6331 2 26.874703 43.015128 66.893224
6332 2 28.244155 43.110961 67.746049
6333 5 27.827463 43.264651 66.836503
6334 2 22.329625 54.642132 74.68548
6335 2 22.519712 54.909002 73.102905
6336 5 22.835485 55.17491 74.027085
6337 2 13.974293 4.781502 73.936014
6338 2 12.407841 4.758429 74.33299
6339 5 13.342994 4.545195 74.656327
6340 2 15.467759 15.438258 74.829669
6341 2 15.51102 15.932438 76.367788
6342 5 15.063944 16.070569 75.470252
6343 2 19.184093 32.58709 66.443816
6344 2 19.288494 33.868628 65.464706
6345 5 19.59621 33.478098 66.346366
6346 2 33.975578 51.607849 61.420692
6347 2 35.347404 52.453888 61.539888
6348 5 34.338224 52.508473 61.595604
6349 2 30.331572 8.223279 72.286133
6350 2 31.331941 8.115778 73.550885
6351 5 30.387375 8.339656 73.264178
6352 2 31.256999 50.297449 70.800427
6353 2 32.016826 49.525945 69.600702
6354 5 31.449402 49.403619 70.429915
6355 2 31.41759 37.881857 64.964212
6356 2 29.861503 37.488704 64.774683
6357 5 30.609637 37.58953 65.448967
6358 2 37.556606 5.158223 72.092908
6359 2 37.318909 5.460969 73.662538
6360 5 36.860845 5.239209 72.787594
6361 2 16.198416 6.105664 66.530611
6362 2 17.55277 5.351479 66.987583
6363 5 16.758749 5.888329 67.312929
6364 2 36.738406 37.498279 68.736646
6365 2 35.63614 37.400518 67.558789
6366 5 36.227204 36.863549 68.18075
6367 2 5.447167 37.368343 64.306431
6368 2 4.475012 38.474937 63.641405
6369 5 5.24402 38.333468 64.284164
6370 2 14.606645 45.790481 67.596321
6371 2 14.686444 44.186 67.772863
6372 5 14.289614 45.037619 68.149422
6373 2 2.907696 25.082547 66.083323
6374 2 3.86457 24.830304 67.361079
6375 5 3.823113 25.215792 66.426089
6376 2 12.682893 62.156418 67.910987
6377 2 14.218692 62.158755 67.407785
6378 5 13.608422 61.960252 68.190533
6379 2 3.963062 13.85898 71.408531
6380 2 4.518985 13.686476 69.900854
6381 5 4.407048 13.226347 70.795437
6382 2 32.259097 52.270274 68.853073
6383 2 32.104581 53.838596 68.494762
6384 5 31.598157 52.985574 68.6958
6385 2 27.237311 19.247612 65.189004
6386 2 26.216436 20.492524 65.047927
6387 5 26.281456 19.486563 65.139261
6388 2 7.807169 49.8403 63.653657
6389 2 7.511954 49.948832 65.238891
6390 5 7.085398 49.920123 64.321419
6391 2 28.642893 15.616372 70.350828
6392 2 28.791955 14.074392 69.890421
6393 5 28.218457 14.727713 70.408879
6394 2 32.121864 23.703388 61.681615
6395 2 31.865667 23.708466 63.277307
6396 5 31.91874 24.288488 62.449488
6397 2 36.780521 42.186788 64.984562
6398 2 37.90127 42.653642 63.917854
6399 5 36.931877 42.75354 64.191395
6400 2 31.660226 49.955081 72.936221
6401 2 32.564446 48.814992 72.23303
6402 5 31.659535 49.013896 72.640584
6403 2 25.125131 22.308279 65.636486
6404 2 24.902084 22.141956 67.228492
6405 5 24.728434 21.722337 66.323896
6406 2 7.895764 27.708809 67.685763
6407 2 8.422511 27.849567 66.164375
6408 5 8.588313 27.398729 67.05532
6409 2 21.353771 18.364328 65.399467
6410 2 21.475914 19.337783 64.115192
6411 5 21.934903 19.032035 64.963941
6412 2 11.060625 5.918406 76.285418
6413 2 12.618756 6.210196 75.970806
6414 5 11.966676 5.532813 76.3456
6415 2 9.95811 40.046768 72.213368
6416 2 10.930652 40.821598 71.181043
6417 5 10.751738 39.936269 71.637889
6418 2 25.69771 46.639425 74.023187
6419 2 26.366958 47.946746 74.697661
6420 5 25.655573 47.624577 74.053716
6421 2 31.330749 37.642197 68.266101
6422 2 31.758246 38.595749 67.033266
6423 5 32.054232 38.219775 67.925209
6424 2 34.859214 59.960476 71.545354
6425 2 33.962816 60.412557 72.811841
6426 5 34.17162 60.603605 71.840024
6427 2 22.622975 51.230037 76.603349
6428 2 21.36892 51.199986 75.58436
6429 5 21.768692 51.672582 76.385211
6430 2 7.673397 21.057247 67.686921
6431 2 8.288485 20.335509 68.995606
6432 5 7.941986 20.183046 68.056872
6433 2 14.323196 57.780026 70.170238
6434 2 13.34873 58.385073 71.308759
6435 5 13.417272 58.136415 70.329985
6436 2 1.912811 52.561449 71.174866
6437 2 1.015347 51.221115 71.075069
6438 5 1.003015 52.20526 71.311363
6439 2 37.897918 60.645916 66.981186
6440 2 37.901261 60.966946 68.565112
6441 5 37.805924 61.37217 67.64249
6442 2 22.543597 51.575392 63.869195
6443 2 22.507784 50.703528 65.229514
6444 5 21.940697 51.110035 64.496239
6445 2 32.321313 40.803473 63.087709
6446 2 32.394212 40.30799 61.55113
6447 5 32.745559 40.146345 62.486519
6448 2 20.965646 36.150585 72.333321
6449 2 20.414234 36.274743 73.847397
6450 5 20.297533 35.792915 72.964929
6451 2 26.006009 7.724115 61.956851
6452 2 27.017169 6.807946 61.090776
6453 5 26.049413 7.07861 61.212088
6454 2 7.929537 37.093657 69.865596
6455 2 8.7054 37.963248 68.745889
6456 5 8.788399 37.532413 69.65804
6457 2 33.956331 34.951615 66.560704
6458 2 33.864748 36.508423 66.13661
6459 5 33.393891 35.613486 66.092924
6460 2 8.333331 3.72446 64.264239
6461 2 8.294834 2.775801 62.956394
6462 5 7.911808 2.91839 63.8824
6463 2 22.989742 17.305194 66.588019
6464 2 23.078044 16.73535 65.078259
6465 5 22.791882 16.519711 66.024905
6466 2 12.464278 9.990026 63.150789
6467 2 12.707442 9.69593 61.580351
6468 5 12.245007 10.306172 62.242382
6469 2 0.990571 50.861186 67.571807
6470 2 1.593698 49.680737 66.647321
6471 5 1.277114 49.917221 67.579188
6472 2 14.111244 48.841813 74.447878
6473 2 13.782474 49.066584 76.014174
6474 5 13.725877 48.409374 75.246452
6475 2 8.548103 33.664302 61.736154
6476 2 7.960534 33.208269 60.30134
6477 5 7.713199 33.535712 61.226615
6478 2 15.482024 32.545293 67.842565
6479 2 14.186079 31.587782 67.717686
6480 5 15.190286 31.634696 67.599805
6481 2 5.394868 44.402258 74.634346
6482 2 6.688203 45.280632 74.224906
6483 5 5.697195 45.318237 74.427433
6484 2 15.127208 57.834902 59.81455
6485 2 14.454417 57.890262 61.282945
6486 5 14.327793 57.573297 60.33004
6487 2 3.776959 43.171038 62.285043
6488 2 3.776261 44.489357 61.350201
6489 5 3.206783 43.900762 61.944993
6490 2 28.518114 22.280449 69.297173
6491 2 28.436253 21.472217 67.900049
6492 5 28.92578 21.543722 68.783099
6493 2 26.673801 15.282059 67.023479
6494 2 27.327651 14.601834 68.335603
6495 5 27.445248 14.756204 67.34219
6496 2 0.995703 39.738153 67.411302
6497 2 1.000291 38.187969 66.954352
6498 5 1.585475 38.985993 67.167058
6499 2 34.378895 4.077336 68.079498
6500 2 33.562855 5.162558 68.956007
6501 5 33.475695 4.428156 68.264932
6502 2 1.927705 13.028052 71.516422
6503 2 1.631948 11.903085 70.394428
6504 5 2.306775 12.582693 70.721946
6505 2 28.735539 12.889141 68.037542
6506 2 29.205638 12.15409 66.677174
6507 5 28.404442 12.417298 67.236935
6508 2 23.699775 43.365467 69.698463
6509 2 23.438955 42.743356 71.167083
6510 5 23.616398 42.51792 70.196403
6511 2 33.671598 36.898514 63.176547
6512 2 33.344432 37.91425 61.962817
6513 5 33.025315 37.573789 62.861026
6514 2 29.685546 52.068876 76.34024
6515 2 28.823909 50.703132 76.405213
6516 5 29.719793 51.123078 76.618672
6517 2 5.486241 26.923061 69.767286
6518 2 3.918426 27.039568 69.392747
6519 5 4.842874 27.398451 69.189951
6520 2 21.994935 58.930598 76.602397
6521 2 21.619129 59.231541 75.05964
6522 5 21.926798 59.64846 75.929149
6523 2 19.79291 57.132373 63.35504
6524 2 18.626452 56.249025 64.041311
6525 5 19.507621 56.207301 63.544997
6526 2 37.897727 59.701383 73.929182
6527 2 37.554606 59.63325 72.35136
6528 5 37.292786 60.053691 73.234087
6529 2 15.426781 43.474331 75.728102
6530 2 14.948298 43.574786 74.187693
6531 5 14.822563 43.957743 75.116166
6532 2 25.610087 27.861124 61.23377
6533 2 26.628722 27.060472 60.267729
6534 5 26.248854 27.109885 61.204631
6535 2 33.929313 18.747875 62.18725
6536 2 33.917329 18.476189 60.594159
6537 5 34.185204 18.095436 61.492935
6538 2 2.821298 36.176567 76.604417
6539 2 3.29153 36.513804 75.095427
6540 5 3.530852 36.009404 75.939721
6541 2 1.988553 53.722927 62.844215
6542 2 0.993205 52.840025 63.761637
6543 5 1.955928 52.96538 63.475318
6544 2 11.428029 1.907558 73.1051
6545 2 11.375405 0.940551 71.811259
6546 5 11.141899 1.860815 72.162139
6547 2 33.545688 6.923829 67.576597
6548 2 32.026028 7.197504 67.099489
6549 5 32.819674 6.576251 67.006225
6550 2 21.21179 35.823553 69.282095
6551 2 19.874197 35.443128 68.458677
6552 5 20.818355 35.798858 68.377755
6553 2 36.172375 9.925587 69.277101
6554 2 37.028479 10.860208 70.27983
6555 5 36.424008 10.050338 70.222801
6556 2 33.646709 33.984408 64.060098
6557 2 34.253769 34.630349 62.708753
6558 5 34.482089 34.121918 63.553676
6559 2 32.392504 6.282769 72.949527
6560 2 31.013457 5.781394 73.626836
6561 5 31.811159 5.4954 73.073297
6562 2 12.223674 35.274375 73.431226
6563 2 11.037193 36.364777 73.308001
6564 5 11.528382 35.623421 72.824623
6565 2 33.456757 43.256802 61.657322
6566 2 32.271673 44.072137 60.920641
6567 5 32.960491 43.338978 60.808678
6568 2 2.950321 31.663719 69.673034
6569 2 3.528835 31.42601 71.16324
6570 5 3.640334 31.962012 70.311889
6571 2 21.503352 37.726384 70.341046
6572 2 20.699365 37.936178 68.954868
6573 5 20.681071 38.108282 69.952151
6574 2 8.669384 19.333212 70.914168
6575 2 8.636542 20.663768 71.830921
6576 5 8.144031 19.810316 71.599446
6577 2 22.130525 27.733249 66.05841
6578 2 22.47588 28.032023 64.508132
6579 5 22.855034 28.004433 65.44622
6580 2 35.058035 40.479167 66.076288
6581 2 35.022206 39.814392 67.548934
6582 5 35.219192 39.641193 66.571322
6583 2 10.4024 16.933505 67.611765
6584 2 10.674358 16.250378 69.050956
6585 5 10.922729 17.022317 68.445192
6586 2 23.814364 4.23894 64.175294
6587 2 22.415053 4.764813 63.561062
6588 5 23.368639 4.509225 63.337734
6589 2 6.754765 38.267483 61.476181
6590 2 6.20829 39.322615 62.571607
6591 5 6.238294 38.344432 62.313181
6592 2 19.248033 4.278375 73.754761
6593 2 18.12416 3.953323 72.639797
6594 5 18.405545 3.789568 73.598199
6595 2 34.20389 30.832523 62.083425
6596 2 35.381797 29.764049 61.795686
6597 5 35.034555 30.450292 62.453729
6598 2 5.79743 49.758543 67.862507
6599 2 5.710222 50.483103 66.420528
6600 5 6.12495 49.715023 66.932954
6601 2 5.167878 43.470148 76.616936
6602 2 3.620821 43.002947 76.601673
6603 5 4.252116 43.769125 76.404277
6604 2 36.475271 46.195618 75.007997
6605 2 35.079544 45.404871 74.811625
6606 5 35.597321 46.02298 75.423487
6607 2 6.510895 12.783513 71.24646
6608 2 7.202903 12.799684 69.786063
6609 5 6.415414 12.455693 70.320907
6610 2 23.228886 2.239133 75.061622
6611 2 22.81288 2.52452 76.597001
6612 5 22.497427 2.138829 75.715945
6613 2 16.611951 62.178883 70.780928
6614 2 15.433195 61.513342 71.663813
6615 5 15.738617 61.723853 70.722044
6616 2 21.16326 58.189082 71.864208
6617 2 20.329888 56.816588 72.047647
6618 5 20.590725 57.687805 72.492027
6619 2 34.801071 15.011187 68.697552
6620 2 35.203715 13.615464 67.989222
6621 5 35.263325 14.623319 67.917097
6622 2 4.473035 59.344745 63.758174
6623 2 4.367361 58.461573 62.408828
6624 5 4.086702 58.519729 63.379588
6625 2 28.700527 9.954256 75.839169
6626 2 29.369965 8.548417 75.406315
6627 5 29.532791 9.426384 75.882959
6628 2 13.122612 61.379759 71.212787
6629 2 14.061367 60.3289 70.421379
6630 5 13.12285 60.504712 70.757241
6631 2 27.952177 56.919576 71.644725
6632 2 27.716743 57.199013 70.070438
6633 5 27.370743 57.390941 71.00209
6634 2 11.561413 9.426029 67.810654
6635 2 11.479158 10.84734 67.045798
6636 5 11.952115 9.952881 67.073762
6637 2 10.69231 4.475451 64.848782
6638 2 10.347755 4.880889 66.374821
6639 5 9.967866 4.498669 65.518014
6640 2 2.492633 6.775877 63.286827
6641 2 2.735608 6.578737 61.701269
6642 5 2.247981 7.127473 62.398144
6643 2 33.782491 3.07214 76.470071
6644 2 33.855228 3.063972 74.855594
6645 5 33.508534 2.568473 75.667265
6646 2 9.269892 55.600834 68.358332
6647 2 9.143902 54.000699 68.546989
6648 5 9.577051 54.841324 68.907903
6649 2 5.412971 44.457127 70.547017
6650 2 5.555761 43.909316 69.033277
6651 5 4.967762 43.910211 69.85716
6652 2 19.280019 19.345083 64.227918
6653 2 19.3001 19.02566 65.812046
6654 5 19.546547 19.707623 65.105846
6655 2 8.371847 42.680495 69.243226
6656 2 7.404553 43.612162 70.142245
6657 5 8.187876 42.971627 70.167687
6658 2 11.001697 11.301203 74.232713
6659 2 11.006974 12.137243 72.849634
6660 5 10.451432 11.540776 73.449742
6661 2 0.995487 42.822363 61.800559
6662 2 1.031388 41.950056 63.160591
6663 5 1.559722 42.583222 62.573658
6664 2 35.13504 42.312413 69.81278
6665 2 36.5176 42.92977 70.377842
6666 5 35.785487 43.043599 69.688218
6667 2 31.237389 2.790187 72.019376
6668 2 31.412936 3.373681 73.516243
6669 5 31.793312 2.731808 72.832255
6670 2 23.944235 33.180715 66.981286
6671 2 24.77039 32.777206 65.652171
6672 5 23.857162 33.025951 66.010875
6673 2 5.907607 50.11333 76.036638
6674 2 6.423207 48.581756 76.01837
6675 5 6.250849 49.386128 76.608121
6676 2 30.009532 19.414692 68.986988
6677 2 30.697142 17.971056 68.752466
6678 5 30.66955 18.782006 69.357549
6679 2 14.930602 54.079396 70.785505
6680 2 14.874539 54.962329 69.433033
6681 5 14.984382 54.026163 69.801887
6682 2 21.466621 45.325054 70.81103
6683 2 22.6161 45.395264 69.677158
6684 5 22.223114 44.828548 70.418051
6685 2 9.216015 40.108793 68.694709
6686 2 10.770006 40.405808 69.024544
6687 5 10.072047 39.678813 68.930414
6688 2 1.280811 21.412397 70.812796
6689 2 1.004412 22.994027 70.628559
6690 5 1.639269 22.23731 70.407509
6691 2 21.782969 7.755781 61.1584
6692 2 22.559735 8.444434 59.919736
6693 5 22.472919 7.599813 60.470741
6694 2 14.473421 15.92371 66.946793
6695 2 15.516448 16.905028 67.695795
6696 5 14.843804 16.160656 67.829915
6697 2 14.293055 53.077832 72.637623
6698 2 13.576171 53.173685 74.082886
6699 5 14.174172 53.65886 73.425978
6700 2 20.347824 7.386426 73.063267
6701 2 21.523427 7.354106 71.954751
6702 5 21.293835 7.617063 72.90484
6703 2 18.165605 58.145596 72.104922
6704 2 17.536402 58.796031 70.765918
6705 5 17.914551 59.000877 71.682197
6706 2 1.264567 39.21693 62.745039
6707 2 1.07614 39.57184 61.179654
6708 5 0.999208 39.934039 62.121684
6709 2 36.237699 11.359317 73.471535
6710 2 36.466414 11.520822 75.063232
6711 5 36.030892 11.932372 74.247466
6712 2 31.024183 52.379007 74.62191
6713 2 30.54295 53.235099 73.338392
6714 5 30.870509 52.329044 73.648709
6715 2 13.981832 14.799857 73.282139
6716 2 12.425964 14.379579 73.402704
6717 5 13.080879 15.146973 73.484685
6718 2 20.238191 1.233582 71.455911
6719 2 19.231066 2.497085 71.42196
6720 5 20.204281 2.218914 71.42125
6721 2 0.984058 21.914402 67.283272
6722 2 1.017066 21.061525 68.655645
6723 5 1.032371 21.995289 68.265288
6724 2 22.076556 27.481461 69.824476
6725 2 22.83898 26.056496 69.815618
6726 5 22.759073 26.945248 70.293386
6727 2 11.253178 25.440918 63.411881
6728 2 11.041834 25.872482 61.868838
6729 5 11.396489 26.174121 62.767593
6730 2 8.599703 24.473366 63.063024
6731 2 8.869004 25.529082 61.869359
6732 5 9.148382 25.250389 62.801456
6733 2 7.729588 28.928969 72.991528
6734 2 9.118414 29.332618 72.270329
6735 5 8.195582 28.9441 72.12213
6736 2 15.054555 7.397026 73.13938
6737 2 15.351226 8.350157 71.868387
6738 5 15.496449 7.427262 72.257878
6739 2 3.131963 37.232017 65.25238
6740 2 2.301231 38.40041 64.506299
6741 5 2.55788 38.019046 65.408086
6742 2 20.761606 32.575605 73.531746
6743 2 20.98098 33.567575 72.274859
6744 5 20.519563 33.460675 73.169394
6745 2 32.637596 36.261764 73.64887
6746 2 31.554602 37.352867 74.147382
6747 5 32.457017 37.229953 73.705718
6748 2 19.788411 1.279666 60.609701
6749 2 19.984212 0.991331 62.187808
6750 5 20.447197 0.997704 61.287735
6751 2 5.11154 53.641292 72.163287
6752 2 6.230926 52.615155 72.716381
6753 5 5.454364 52.720401 72.075755
6754 2 31.988092 46.717521 71.727451
6755 2 32.585668 47.518472 70.457303
6756 5 32.067664 46.697615 70.744342
6757 2 5.817888 8.100304 67.954322
6758 2 4.335953 8.46166 68.48835
6759 5 5.05846 8.71699 67.82705
6760 2 22.207037 20.486602 66.590654
6761 2 21.836437 21.217976 65.197943
6762 5 22.591398 20.983733 65.830155
6763 2 27.471824 46.767896 71.676796
6764 2 26.172224 47.728309 71.700058
6765 5 26.543165 46.836446 72.002564
6766 2 28.195948 40.533327 62.537912
6767 2 28.277088 40.689315 64.144455
6768 5 28.815464 40.699821 63.287385
6769 2 22.384219 13.101831 72.624095
6770 2 23.922763 13.251263 72.152452
6771 5 23.312482 13.153666 72.95405
6772 2 10.343283 37.772602 71.752806
6773 2 10.867889 37.293386 70.301243
6774 5 10.609815 36.980503 71.228621
6775 2 11.548336 43.934151 64.777489
6776 2 10.727622 44.385209 63.460344
6777 5 11.63178 44.405523 63.914891
6778 2 19.822055 39.71486 63.111726
6779 2 19.753967 39.829817 64.72233
6780 5 20.347131 39.591057 63.937679
6781 2 29.202029 8.686333 66.756981
6782 2 30.612675 9.286365 67.268778
6783 5 29.809464 9.459618 66.677708
6784 2 35.214147 20.354934 69.699801
6785 2 36.58536 20.78033 70.441899
6786 5 36.107084 20.028018 69.962518
6787 2 27.250411 34.860155 67.761685
6788 2 28.694698 34.237712 68.133836
6789 5 27.772716 34.45205 68.492355
6790 2 4.732188 10.377492 62.831824
6791 2 3.365489 11.211205 63.053075
6792 5 3.771564 10.284198 63.0361
6793 2 28.4178 38.466211 70.309028
6794 2 28.802013 38.49047 71.878642
6795 5 28.723312 39.053003 71.040853
6796 2 10.897414 59.496585 70.181652
6797 2 11.154957 60.107484 71.655548
6798 5 11.293556 59.29853 71.063171
6799 2 33.739723 8.527092 66.082818
6800 2 33.661821 9.254566 67.523862
6801 5 33.146698 9.04354 66.678496
6802 2 17.35422 15.798641 68.122497
6803 2 17.869552 16.553989 66.789914
6804 5 17.958021 15.713532 67.346989
6805 2 19.843295 0.995897 64.515609
6806 2 19.397146 1.026538 66.068641
6807 5 20.189305 1.035479 65.438616
6808 2 18.302978 29.554245 68.587338
6809 2 18.272387 29.91803 70.161701
6810 5 18.520711 30.259578 69.241806
6811 2 25.188538 46.139001 70.293643
6812 2 24.874651 45.272657 68.965931
6813 5 24.783924 45.298066 69.973726
6814 2 17.58305 46.202921 76.097623
6815 2 16.577086 45.282756 75.229735
6816 5 17.415425 45.278416 75.796919
6817 2 34.039228 57.837112 71.524382
6818 2 33.685689 58.214237 73.055618
6819 5 33.380697 57.69142 72.244342
6820 2 8.7446 30.149491 70.2657
6821 2 9.23456 31.414278 69.38698
6822 5 8.901393 31.122964 70.297289
6823 2 24.139446 48.775651 72.959357
6824 2 24.060784 47.357337 72.188582
6825 5 23.613071 47.945026 72.880465
6826 2 16.616704 28.011872 60.304352
6827 2 16.818858 28.736771 61.734579
6828 5 17.209909 28.060343 61.091111
6829 2 25.061456 30.620798 63.702744
6830 2 24.701325 29.693852 62.428785
6831 5 24.751043 29.722188 63.439356
6832 2 24.608096 51.072827 72.885525
6833 2 23.945257 50.991308 71.413827
6834 5 24.178776 51.611252 72.179115
6835 2 3.25957 22.531623 64.331936
6836 2 4.285601 22.947757 65.509216
6837 5 3.416056 23.188976 65.050706
6838 2 6.257664 19.863774 75.376917
6839 2 7.169534 20.079225 74.060114
6840 5 6.79267 19.389082 74.697456
6841 2 16.459679 45.634245 62.454413
6842 2 17.924289 46.309667 62.351371
6843 5 17.325722 45.722641 62.918509
6844 2 23.956785 44.443762 61.046578
6845 2 23.699785 45.083702 62.508195
6846 5 23.671626 45.265081 61.512787
6847 2 17.847589 37.050595 60.403956
6848 2 18.346116 38.026358 61.591917
6849 5 17.581527 37.448309 61.266665
6850 2 13.407377 38.166173 71.076959
6851 2 12.718668 37.410652 72.328664
6852 5 12.543657 37.997647 71.52285
6853 2 24.596833 2.131807 70.176877
6854 2 24.485804 3.255779 71.332842
6855 5 24.182983 2.998601 70.401882
6856 2 35.396761 1.57282 61.98211
6857 2 34.869118 1.532396 63.509151
6858 5 34.984255 0.989672 62.662557
6859 2 19.396183 41.887471 69.104389
6860 2 18.201563 42.768774 69.743203
6861 5 18.593915 42.415709 68.879529
6862 2 37.475256 13.374187 63.153622
6863 2 37.365827 13.709592 64.730779
6864 5 37.16079 13.019831 64.018939
6865 2 35.691412 5.122182 70.927384
6866 2 35.172553 3.61051 70.687532
6867 5 35.197859 4.544477 70.298184
6868 2 1.51436 30.480336 76.596877
6869 2 1.647073 29.241176 75.567915
6870 5 1.743782 30.24385 75.667001
6871 2 16.190219 2.500285 67.175246
6872 2 15.651346 3.820574 67.935739
6873 5 15.71659 2.811582 67.982712
6874 2 36.300139 60.681955 70.046932
6875 2 35.235587 59.74568 69.271036
6876 5 36.217474 59.881952 69.475624
6877 2 36.87406 51.197433 73.569857
6878 2 36.82346 51.378824 71.96473
6879 5 37.434311 51.233719 72.758665
6880 2 16.461988 46.282612 68.68319
6881 2 17.654158 47.22777 68.137937
6882 5 17.422942 46.296623 68.460476
6883 2 11.926887 25.283506 67.407439
6884 2 10.705153 25.565034 68.427245
6885 5 11.184047 25.902842 67.601973
6886 2 12.783732 27.916004 63.004191
6887 2 12.970874 26.812378 64.169903
6888 5 12.509427 27.678349 63.921528
6889 2 32.57806 60.219267 75.087082
6890 2 31.905715 59.698165 73.712928
6891 5 32.540575 59.456021 74.463159
6892 2 26.455174 23.54556 70.456432
6893 2 25.286202 23.153728 69.411507
6894 5 25.509016 23.707573 70.228904
6895 2 30.447846 27.435071 68.929777
6896 2 31.284494 28.762305 69.317545
6897 5 30.763633 28.302388 68.581538
6898 2 4.775867 59.113729 66.271882
6899 2 5.676628 60.448732 66.136639
6900 5 4.825872 59.994225 65.829777
6901 2 21.435154 50.32432 68.936764
6902 2 20.917769 49.647624 70.310187
6903 5 20.724544 49.759386 69.322918
6904 2 28.382929 16.776339 63.660548
6905 2 28.349745 17.350898 65.170739
6906 5 27.832303 17.282999 64.303461
6907 2 21.981394 38.624177 73.069898
6908 2 20.997695 39.379001 74.106466
6909 5 21.95233 39.311669 73.776822
6910 2 22.933377 24.462494 71.585128
6911 2 23.220612 22.888275 71.811461
6912 5 23.634985 23.77053 71.538611
6913 2 10.354443 61.619941 70.005442
6914 2 9.534257 60.710054 68.951262
6915 5 9.979095 61.608109 69.09319
6916 2 9.175132 0.993555 71.697873
6917 2 9.325824 1.295207 73.27844
6918 5 8.681125 1.291495 72.498135
6919 2 27.543106 3.848841 66.7045
6920 2 27.165541 3.662065 65.144227
6921 5 26.937904 4.165152 65.992526
6922 2 20.354754 13.159202 76.122003
6923 2 20.030546 14.178787 74.91071
6924 5 19.780875 13.916197 75.855823
6925 2 21.286261 22.685748 74.756522
6926 2 21.150201 21.322154 73.899786
6927 5 21.363486 22.310236 73.847534
6928 2 36.303705 1.49526 76.611339
6929 2 35.171326 1.008576 75.565991
6930 5 35.534483 1.803759 76.076215
6931 2 29.07614 43.769558 76.417565
6932 2 30.671346 43.954384 76.599363
6933 5 29.819619 44.405307 76.289917
6934 2 30.332291 20.178197 71.024261
6935 2 29.478351 21.494298 71.412281
6936 5 29.591785 20.758213 70.726834
6937 2 26.618585 61.223529 67.331625
6938 2 26.358914 59.674205 67.711177
6939 5 26.353169 60.621792 68.066947
6940 2 28.538177 48.473266 67.609465
6941 2 29.693623 48.689847 66.500442
6942 5 28.741555 48.37981 66.648666
6943 2 14.751719 20.984016 75.706928
6944 2 15.486477 19.700968 76.359474
6945 5 15.629012 20.632299 75.989564
6946 2 15.44803 41.50846 74.745075
6947 2 16.289605 41.129805 73.418324
6948 5 15.750425 40.752843 74.187553
6949 2 22.205812 46.269967 72.653206
6950 2 20.802875 46.059684 73.427445
6951 5 21.5829 45.583983 72.991787
6952 2 5.375585 23.157982 67.411151
6953 2 5.61208 21.707872 68.084313
6954 5 6.067481 22.558787 67.779222
6955 2 37.959526 20.72753 64.499764
6956 2 37.89332 19.227859 63.901017
6957 5 37.864799 19.778024 64.750154
6958 2 21.610656 32.913472 67.040058
6959 2 21.923271 34.498092 66.983963
6960 5 21.788661 33.664561 66.425721
6961 2 2.629402 23.543301 72.253926
6962 2 3.085666 23.860153 70.736256
6963 5 3.407043 23.557309 71.647041
6964 2 24.72406 9.032778 68.04139
6965 2 24.383335 8.76458 69.598269
6966 5 24.444172 8.33734 68.682686
6967 2 9.600425 6.630209 65.106288
6968 2 9.819082 8.162623 64.641754
6969 5 9.935566 7.194623 64.369844
6970 2 12.002587 10.7071 69.546653
6971 2 11.993899 11.921577 70.612891
6972 5 11.900324 11.684475 69.633323
6973 2 5.423269 0.998806 70.80908
6974 2 4.980627 0.99418 69.25475
6975 5 5.374268 1.557776 69.997672
6976 2 15.188241 46.776269 65.375608
6977 2 16.286996 47.880148 64.944235
6978 5 16.134111 47.035888 65.481243
6979 2 34.857754 11.679089 69.446918
6980 2 34.347965 11.299732 67.960951
6981 5 34.149737 11.855909 68.783083
6982 2 23.785054 42.41101 67.72001
6983 2 23.810526 41.794448 66.226323
6984 5 23.219946 42.00424 67.021138
6985 2 8.115776 27.084793 70.945381
6986 2 7.632485 26.503619 69.516898
6987 5 7.621197 27.314081 70.123158
6988 2 4.040614 9.510759 65.705224
6989 2 5.441607 8.745535 65.453136
6990 5 4.469744 8.622462 65.707816
6991 2 31.447438 8.535482 65.37588
6992 2 32.405877 9.132884 64.219852
6993 5 32.080034 8.282822 64.662287
6994 2 2.615245 36.702465 63.143477
6995 2 2.13069 37.182312 61.678264
6996 5 2.590727 37.475376 62.530911
6997 2 29.036574 28.632294 60.326437
6998 2 28.896167 29.04521 61.882613
6999 5 28.402667 28.672613 61.081266
7000 2 20.083651 16.976715 71.046837
7001 2 19.039233 18.207176 70.962864
7002 5 20.014775 17.960501 71.072387
7003 2 31.200876 44.391659 71.351179
7004 2 30.738858 42.905972 70.913951
7005 5 31.404988 43.647215 70.736872
7006 2 33.528597 37.415553 69.632955
7007 2 33.78553 36.494255 68.330231
7008 5 33.139885 36.694126 69.083704
7009 2 30.933819 39.130806 70.974869
7010 2 30.891901 38.6947 72.530488
7011 5 31.221042 39.397154 71.880293
7012 2 18.085833 34.492622 67.589454
7013 2 17.315969 33.50161 68.607835
7014 5 17.446134 33.742904 67.633483
7015 2 33.643702 51.172225 70.308031
7016 2 34.309606 50.227026 71.43722
7017 5 33.435829 50.521138 71.019442
7018 2 10.814581 54.498669 75.501492
7019 2 10.297761 52.99654 75.798815
7020 5 10.42704 53.695996 75.078693
7021 2 3.874166 59.697346 72.622281
7022 2 4.040162 60.273173 74.123202
7023 5 3.707467 60.485863 73.191212
7024 2 32.900054 31.113262 68.126482
7025 2 33.1396 29.99403 69.267462
7026 5 33.56326 30.766611 68.769306
7027 2 9.261343 58.83678 76.411768
7028 2 7.716867 58.384011 76.558365
7029 5 8.67388 58.054843 76.54097
7030 2 14.000011 10.792499 66.119821
7031 2 13.958926 10.864921 64.505831
7032 5 13.392436 10.808659 65.342761
7033 2 19.900468 40.814771 70.959764
7034 2 21.317365 40.042546 70.870499
7035 5 20.460727 40.252533 70.373906
7036 2 16.184103 5.508629 73.084763
7037 2 16.167928 5.299373 74.687213
7038 5 16.560036 4.964011 73.816402
7039 2 26.594742 14.50636 76.598453
7040 2 26.424727 13.269957 75.571662
7041 5 26.498869 13.525793 76.548175
7042 2 36.508713 54.221857 68.915088
7043 2 36.259471 55.282992 67.721871
7044 5 36.737221 54.428141 67.977825
7045 2 19.652853 17.211464 63.877065
7046 2 19.589321 16.877963 65.45714
7047 5 19.053452 16.906703 64.598917
7048 2 20.177815 9.53461 71.897986
7049 2 19.385292 10.346002 73.049266
7050 5 19.62886 10.336707 72.066863
7051 2 8.692461 18.553342 66.78342
7052 2 7.08468 18.423367 66.683204
7053 5 7.932575 18.587103 66.155196
7054 2 33.818102 16.58769 63.535795
7055 2 32.905833 17.258707 64.68879
7056 5 33.22419 17.350487 63.732363
7057 2 26.64951 3.472184 75.843317
7058 2 27.544644 3.685655 74.514761
7059 5 27.251487 3.012334 75.211342
7060 2 30.501256 57.398276 67.485804
7061 2 29.380126 57.195447 68.632025
7062 5 30.161867 56.760989 68.158048
7063 2 31.296339 36.614435 71.939261
7064 2 31.263744 37.039119 70.380263
7065 5 31.781729 37.121366 71.245973
7066 2 35.928411 60.397761 74.899491
7067 2 34.598123 60.845917 75.700356
7068 5 35.015142 60.752111 74.782847
7069 2 24.621541 25.588206 74.130447
7070 2 24.266913 24.665343 75.408906
7071 5 24.13494 25.576605 74.988535
7072 2 5.31774 17.38095 71.541102
7073 2 5.237367 17.457497 69.928781
7074 5 5.056864 16.874062 70.735968
7075 2 10.296289 48.217662 74.564581
7076 2 9.731946 48.761962 73.151375
7077 5 10.079457 47.947081 73.641001
7078 2 13.695706 13.969178 76.608426
7079 2 14.332315 13.587783 75.172751
7080 5 13.794217 14.280697 75.677576
7081 2 35.197969 57.948095 67.256716
7082 2 34.458889 57.473724 68.613414
7083 5 35.311285 57.404307 68.071999
7084 2 5.29977 29.121565 71.139834
7085 2 6.239092 27.939153 71.71557
7086 5 5.80039 28.824244 71.936208
7087 2 18.314966 24.534631 68.870021
7088 2 18.234323 25.960068 68.112711
7089 5 18.803786 25.377017 68.712952
7090 2 7.766396 55.614972 75.235331
7091 2 6.721434 56.789303 74.859968
7092 5 7.615077 56.58825 75.290673
7093 2 12.040777 36.674646 60.18877
7094 2 11.896758 37.503837 61.568479
7095 5 11.468772 37.318291 60.670188
7096 2 21.004104 42.265786 64.764002
7097 2 21.907364 40.92579 64.743273
7098 5 21.285309 41.491492 65.306795
7099 2 35.619051 26.40397 72.423282
7100 2 36.451358 25.089184 72.859743
7101 5 35.628527 25.418872 72.371089
7102 2 7.637913 45.664168 62.149708
7103 2 8.161974 45.520417 63.671743
7104 5 8.302788 46.004631 62.794112
7105 2 16.742164 54.212319 75.741636
7106 2 15.914724 53.275506 74.717127
7107 5 16.1195 54.232175 74.976701
7108 2 19.649805 15.762542 73.432088
7109 2 18.873052 14.714471 72.478098
7110 5 18.898067 15.67398 72.799413
7111 2 32.118834 55.998402 73.402221
7112 2 30.93351 55.976774 72.303843
7113 5 31.600907 55.406023 72.807185
7114 2 4.470135 25.43445 72.092343
7115 2 5.326434 24.84493 70.854961
7116 5 4.557495 25.451802 71.109847
7117 2 7.746589 31.74056 67.131384
7118 2 6.960117 31.952252 65.735482
7119 5 7.290566 31.262665 66.398657
7120 2 4.151061 41.452142 69.356146
7121 2 3.469275 42.417757 70.458258
7122 5 3.311909 41.912296 69.595546
7123 2 20.059055 31.247112 76.415719
7124 2 19.746866 30.885959 74.871697
7125 5 19.37591 31.319573 75.707698
7126 2 10.346246 37.930596 76.112851
7127 2 9.640724 37.873355 74.659972
7128 5 10.359412 37.464239 75.243616
7129 2 31.576205 50.65938 67.519744
7130 2 30.169599 50.824684 66.741266
7131 5 30.850368 51.297616 67.322141
7132 2 18.726158 52.392737 72.400586
7133 2 18.800457 51.714446 73.865611
7134 5 19.158307 52.462121 73.284704
7135 2 7.931944 56.850688 69.783369
7136 2 7.581971 58.200194 68.965906
7137 5 8.218 57.415135 69.026533
7138 2 15.692797 13.274916 61.240381
7139 2 16.274071 13.201792 62.746591
7140 5 16.165487 12.690818 61.879618
7141 2 10.030189 55.904463 59.910646
7142 2 9.722073 57.418832 60.38356
7143 5 10.449678 56.779005 60.090748
7144 2 28.780085 16.38594 67.977921
7145 2 28.50634 17.862491 68.575212
7146 5 28.15824 16.912952 68.533617
7147 2 35.771488 47.643094 65.492311
7148 2 35.383705 49.149738 65.054652
7149 5 36.11379 48.567097 65.444566
7150 2 34.60887 32.3462 67.493629
7151 2 35.540609 31.723375 68.658037
7152 5 34.904262 32.475527 68.425964
7153 2 31.774486 52.541364 71.652567
7154 2 32.794316 51.848963 72.697758
7155 5 32.730159 52.424901 71.867875
7156 2 37.409062 33.647457 73.938257
7157 2 37.890312 34.857979 72.981738
7158 5 37.838739 34.535492 73.939793
7159 2 28.945984 58.95239 63.707663
7160 2 27.370309 59.300037 63.616626
7161 5 28.294405 59.6921 63.746475
7162 2 5.397318 38.433795 68.765462
7163 2 6.118678 39.016443 70.089115
7164 5 6.195234 38.341963 69.338286
7165 2 9.934461 1.576281 67.514561
7166 2 9.30196 2.843328 68.293297
7167 5 10.011753 2.552636 67.632827
7168 2 12.729452 7.257625 60.851957
7169 2 14.021738 8.204286 60.638124
7170 5 13.650476 7.423303 61.164201
7171 2 19.122775 22.794249 76.591455
7172 2 18.693024 21.244461 76.432186
7173 5 18.349099 22.182176 76.596295
7174 2 33.092896 14.522059 65.667171
7175 2 31.967714 14.948853 64.588419
7176 5 32.937518 15.061065 64.855653
7177 2 34.954787 13.666942 71.005986
7178 2 35.615083 12.254273 71.43057
7179 5 34.959368 12.973751 71.707909
7180 2 17.549916 12.361201 74.584132
7181 2 16.61143 13.640938 74.278499
7182 5 17.425591 13.124057 73.971087
7183 2 10.549761 37.121472 67.625987
7184 2 10.256091 36.252474 66.295388
7185 5 10.949921 36.806902 66.780914
7186 2 1.928242 44.935191 64.398577
7187 2 0.990892 45.780876 65.407579
7188 5 1.069516 45.415998 64.466724
7189 2 30.123581 42.954521 74.662422
7190 2 29.955905 43.306088 73.093926
7191 5 30.014445 42.553158 73.767867
7192 2 12.83864 22.335903 75.837706
7193 2 11.283963 21.901114 75.914085
7194 5 11.963221 22.588001 76.216281
7195 2 27.186144 5.778806 69.22037
7196 2 27.615117 4.240552 68.972072
7197 5 27.076934 4.860564 69.564078
7198 2 6.191579 19.182467 68.946017
7199 2 6.307795 19.277682 70.555155
7200 5 5.843793 19.655534 69.738786
7201 2 13.013631 56.17927 62.702873
7202 2 14.426194 55.812617 62.008518
7203 5 13.969873 56.021893 62.887439
7204 2 16.173503 52.169775 76.602584
7205 2 17.601089 52.187781 75.84524
7206 5 17.055966 51.730364 76.565058
7207 2 21.058709 3.027914 73.749818
7208 2 21.069339 4.055014 72.502081
7209 5 21.394105 3.905564 73.449034
7210 2 12.076397 4.7095 71.819495
7211 2 10.775885 4.006625 72.472589
7212 5 11.782587 3.953841 72.381534
7213 2 3.629222 51.718633 64.274939
7214 2 3.95107 51.680995 65.858256
7215 5 4.203734 52.108039 64.976031
7216 2 25.267477 16.808167 70.408788
7217 2 26.560684 16.058966 69.793801
7218 5 25.881025 16.04753 70.543774
7219 2 18.76864 13.010448 67.001247
7220 2 18.805967 13.306896 68.589523
7221 5 18.223887 13.323982 67.761623
7222 2 13.79953 34.095701 67.520434
7223 2 14.778772 34.412384 68.766505
7224 5 13.818245 34.431552 68.447842
7225 2 6.846588 33.085953 70.270372
7226 2 8.451052 33.278749 70.290856
7227 5 7.663948 32.870467 70.779017
7228 2 20.253901 17.609897 74.4639
7229 2 21.04707 18.783554 73.685886
7230 5 20.794528 17.803673 73.661775
7231 2 27.409277 32.317361 76.349933
7232 2 28.926945 31.844256 76.641054
7233 5 28.322125 32.647621 76.525626
7234 2 10.559966 36.042185 63.950411
7235 2 11.361851 35.287167 62.767693
7236 5 11.003123 36.180657 63.07997
7237 2 5.146903 37.780097 76.605912
7238 2 4.139826 39.044095 76.605399
7239 5 4.327807 38.140219 76.190431
7240 2 24.10067 48.326726 64.971784
7241 2 23.938532 49.156859 66.348915
7242 5 23.437151 48.675107 65.613347
7243 2 25.292128 30.123002 74.393202
7244 2 25.175795 29.734323 72.82882
7245 5 24.682597 30.133257 73.617574
7246 2 30.965388 44.972458 62.445049
7247 2 31.318002 46.244653 61.512805
7248 5 31.362251 45.875589 62.454273
7249 2 22.793062 28.176497 76.274838
7250 2 22.898732 26.58028 76.504665
7251 5 23.215132 27.353088 75.932662
7252 2 17.660612 40.860777 64.253503
7253 2 17.220776 40.61728 65.789455
7254 5 16.879292 40.770037 64.848933
7255 2 37.224219 5.290508 69.332845
7256 2 37.636106 6.770518 69.834657
7257 5 36.916372 6.226802 69.375438
7258 2 28.005887 15.18081 65.258425
7259 2 28.413972 13.617906 65.206538
7260 5 27.816012 14.327214 64.80175
7261 2 12.33296 13.975273 62.084442
7262 2 11.837056 12.482729 62.456312
7263 5 12.310977 13.043919 61.759899
7264 2 35.960074 48.137335 71.725679
7265 2 34.636793 47.478404 72.378852
7266 5 35.61501 47.325952 72.168194
7267 2 15.352917 8.126066 66.071657
7268 2 14.817599 8.637808 67.508128
7269 5 15.07475 8.928659 66.573352
7270 2 30.373275 60.418501 62.899699
7271 2 29.922699 61.657716 63.834162
7272 5 29.933546 61.301508 62.886784
7273 2 27.396228 17.289032 71.663177
7274 2 28.651075 17.776126 70.768752
7275 5 27.645934 17.828511 70.875878
7276 2 25.098368 35.614112 71.134142
7277 2 24.237193 36.979866 71.063497
7278 5 25.008511 36.46993 70.651719
7279 2 14.543897 49.40168 63.639766
7280 2 15.170738 49.623877 62.166812
7281 5 14.324429 49.40709 62.677979
7282 2 23.692273 8.699082 63.487317
7283 2 23.918934 8.4192 61.911822
7284 5 23.222739 8.50635 62.641372
7285 2 2.365319 25.136663 74.679261
7286 2 2.60371 26.154188 73.446498
7287 5 2.592847 25.179796 73.720303
7288 2 25.925822 23.611176 74.426208
7289 2 26.215805 23.949831 72.872787
7290 5 26.542065 23.429729 73.677508
7291 2 34.459547 32.942868 71.113821
7292 2 35.285549 31.569815 70.90325
7293 5 34.513954 32.128028 70.560372
7294 2 16.050293 35.637539 62.232653
7295 2 14.912109 36.662786 61.717579
7296 5 15.616575 36.502164 62.426419
7297 2 24.698778 38.550314 69.077831
7298 2 23.425857 38.757583 70.051795
7299 5 23.929389 39.139887 69.261335
7300 2 7.041675 16.181567 76.157316
7301 2 6.277875 16.094934 74.735697
7302 5 6.162041 16.02552 75.738837
7303 2 29.1844 48.152393 61.347236
7304 2 29.315981 46.713963 60.622321
7305 5 28.734615 47.282974 61.224623
7306 2 20.256808 12.765489 72.176575
7307 2 19.502444 12.507431 73.582362
7308 5 19.376661 12.577173 72.580443
7309 2 37.075052 2.355074 63.475664
7310 2 37.896791 0.992492 63.758522
7311 5 37.026648 1.480486 63.929518
7312 2 3.039464 34.435229 74.420907
7313 2 2.681175 33.396988 73.235336
7314 5 2.956071 34.349024 73.441701
7315 2 15.943555 50.928143 65.646816
7316 2 14.627915 51.621387 65.014044
7317 5 15.060816 51.306116 65.872955
7318 2 10.833884 16.502808 61.648019
7319 2 9.41083 16.192849 62.348546
7320 5 10.414908 16.155466 62.470845
7321 2 7.46402 51.577108 76.60032
7322 2 8.186301 52.478627 75.470067
7323 5 7.977157 52.407546 76.45786
7324 2 28.724105 33.11981 70.698111
7325 2 27.739642 34.315303 71.160197
7326 5 28.498067 34.066602 70.537729
7327 2 32.531414 16.011583 67.189023
7328 2 32.660409 16.044883 68.799659
7329 5 32.076936 16.304227 68.014275
7330 2 25.714507 39.78094 65.889666
7331 2 25.840157 40.352322 64.383137
7332 5 26.206733 40.422037 65.324035
7333 2 15.478398 56.515385 64.408166
7334 2 15.567877 57.514667 63.141151
7335 5 16.09112 56.871745 63.722009
7336 2 20.232997 43.927193 73.788978
7337 2 21.165028 42.998778 74.727731
7338 5 20.21148 43.197244 74.45226
7339 2 25.311231 7.235148 73.884351
7340 2 26.698574 7.958006 73.478579
7341 5 25.710335 7.894898 73.268985
7342 2 29.044259 58.737438 66.313763
7343 2 27.479658 58.942267 65.964527
7344 5 28.21966 58.258454 66.061095
7345 2 20.69232 14.059932 62.596381
7346 2 20.547548 12.460617 62.41437
7347 5 20.336547 13.243345 63.020458
7348 2 0.996881 45.906473 70.988761
7349 2 1.291883 45.796945 69.403556
7350 5 1.708659 45.973259 70.30895
7351 2 3.961321 6.786582 74.351761
7352 2 4.464447 6.981907 72.828407
7353 5 4.757618 6.754987 73.770259
7354 2 11.632299 22.789926 65.506587
7355 2 12.147169 22.753711 67.038087
7356 5 12.101172 23.315489 66.197364
7357 2 6.964289 28.78069 60.939627
7358 2 7.202356 27.18895 60.792708
7359 5 7.032619 27.939429 61.450354
7360 2 8.484732 18.308775 76.596013
7361 2 8.682471 19.912765 76.599374
7362 5 8.002989 19.166515 76.522282
7363 2 13.142855 50.123346 65.636917
7364 2 11.777408 50.828695 66.13685
7365 5 12.431974 50.752523 65.36856
7366 2 13.631734 24.118729 73.956469
7367 2 14.741259 23.325915 73.089118
7368 5 14.311047 23.404797 74.001929
7369 2 36.036352 9.755563 62.213436
7370 2 36.945256 10.199955 60.953157
7371 5 36.733174 9.44192 61.589498
7372 2 23.757305 21.323466 74.555895
7373 2 23.579205 22.889101 74.196779
7374 5 23.423728 22.183491 74.905629
7375 2 7.728203 54.865674 66.968418
7376 2 7.010326 55.700959 68.151147
7377 5 7.219757 54.771806 67.808598
7378 2 25.341208 46.812608 62.209331
7379 2 24.101499 47.582566 62.903725
7380 5 24.475562 47.248234 62.02462
7381 2 9.920655 28.962551 74.539679
7382 2 9.070233 30.327238 74.37748
7383 5 9.463171 29.67569 75.045022
7384 2 37.803544 8.397143 63.762196
7385 2 37.884041 9.967657 63.389502
7386 5 37.900268 9.2993 64.149478
7387 2 34.916031 41.831965 76.293837
7388 2 33.722302 40.752748 76.144849
7389 5 34.319752 41.395413 75.640306
7390 2 8.252149 44.761884 67.264956
7391 2 7.691356 45.443744 68.618645
7392 5 8.299695 45.575726 67.820503
7393 2 33.435586 53.53206 75.276555
7394 2 33.043533 53.777073 73.727957
7395 5 32.698826 53.803485 74.679275
7396 2 18.55617 36.980847 67.604446
7397 2 18.731583 37.79549 66.219713
7398 5 19.058049 37.713168 67.174266
7399 2 13.993681 26.870895 74.331814
7400 2 14.716746 27.92085 73.338503
7401 5 13.886564 27.359748 73.48165
7402 2 37.822542 30.211346 76.528661
7403 2 36.501743 29.455494 75.984536
7404 5 36.836927 30.209349 76.57095
7405 2 1.381177 29.995363 70.854519
7406 2 2.28856 29.746142 72.16846
7407 5 1.663218 30.396973 71.710319
7408 2 23.967767 15.273718 71.306854
7409 2 24.131369 15.308664 72.914308
7410 5 24.09071 15.876965 72.077703
7411 2 7.508436 10.064531 61.053897
7412 2 8.305598 8.709285 60.680083
7413 5 8.286886 9.510185 61.29874
7414 2 26.429476 2.579464 72.114587
7415 2 27.102312 2.978862 70.700491
7416 5 26.549239 2.281105 71.181919
7417 2 19.232651 38.299759 73.34486
7418 2 19.889964 38.756248 71.940776
7419 5 19.896767 38.045266 72.661183
7420 2 5.627847 35.749379 73.784357
7421 2 5.980798 36.227986 75.287107
7422 5 6.2962 36.232999 74.325325
7423 2 6.899459 15.698403 70.485711
7424 2 5.99299 15.134202 71.698925
7425 5 6.361015 14.925692 70.779355
7426 2 17.662124 56.083184 73.721977
7427 2 18.323869 55.95582 72.253043
7428 5 18.505785 56.187569 73.221405
7429 2 24.977709 25.900675 69.327752
7430 2 26.305308 26.218753 68.462765
7431 5 25.838953 25.522441 69.030381
7432 2 29.831069 39.575027 67.441352
7433 2 29.917684 39.471439 69.051837
7434 5 29.601372 39.003453 68.211919
7435 2 26.580244 34.686509 64.083801
7436 2 26.260722 34.221174 62.569448
7437 5 26.085291 34.023497 63.546523
7438 2 0.999039 32.759688 62.22381
7439 2 1.0308 32.121738 63.708365
7440 5 1.551138 32.230489 62.847
7441 2 2.429665 20.55358 72.482217
7442 2 3.904577 21.097219 72.106735
7443 5 2.940416 21.366724 72.256026
7444 2 16.347853 32.663004 71.988804
7445 2 16.286938 33.397244 70.550375
7446 5 16.899772 32.959954 71.22694
7447 2 29.93838 31.164063 74.705721
7448 2 29.328268 32.088154 73.528558
7449 5 29.111166 31.371868 74.209974
7450 2 24.822893 43.593886 65.464287
7451 2 24.99943 44.164468 66.966008
7452 5 24.954906 44.419722 65.987545
7453 2 8.362594 58.647191 70.977337
7454 2 9.450753 58.809333 72.161193
7455 5 9.040472 59.258183 71.352039
7456 2 32.932029 60.358346 61.209938
7457 2 32.543684 59.983132 62.733191
7458 5 32.565943 59.641704 61.780584
7459 2 6.59476 54.56357 73.686402
7460 2 7.363051 54.915536 72.308815
7461 5 6.557796 55.133525 72.882028
7462 2 13.715986 31.53955 60.955135
7463 2 13.057264 30.828931 59.661689
7464 5 12.929612 31.550886 60.359552
7465 2 11.799147 47.762144 72.131332
7466 2 12.280013 47.901271 73.667987
7467 5 12.200552 48.385119 72.78249
7468 2 22.609881 38.062437 67.876635
7469 2 23.520694 36.825349 68.37856
7470 5 22.577691 37.116024 68.153213
7471 2 24.048215 33.197275 63.617069
7472 2 24.641469 32.332383 62.387473
7473 5 23.998245 33.07206 62.6398
7474 2 3.507284 53.00147 67.570597
7475 2 2.905215 53.585921 68.951838
7476 5 3.571235 53.751788 68.207907
7477 2 16.094336 41.54219 62.92536
7478 2 16.489307 41.925121 61.405736
7479 5 16.820915 41.494713 62.259733
7480 2 11.311742 4.620513 61.240159
7481 2 10.384416 5.941225 61.152514
7482 5 10.475335 4.977247 60.857543
7483 2 1.739694 47.978433 71.762081
7484 2 1.000903 48.058638 70.326932
7485 5 1.12056 48.521595 71.219054
7486 2 13.422387 3.742253 69.309616
7487 2 13.354193 3.742008 67.69492
7488 5 13.618707 3.201044 68.508503
7489 2 14.53879 39.839895 63.42529
7490 2 13.953155 40.22389 64.881818
7491 5 14.63435 39.659094 64.390386
7492 2 6.502485 54.005861 70.495263
7493 2 5.724316 53.833025 69.089391
7494 5 5.790911 53.495231 70.041225
7495 2 20.662641 52.565843 61.894044
7496 2 20.797941 52.852254 63.478833
7497 5 20.27091 52.352371 62.773935
7498 2 4.640857 21.470738 70.066223
7499 2 5.496974 22.837989 69.968324
7500 5 4.565218 22.444615 69.928119
7501 2 11.33241 48.129591 70.013037
7502 2 10.08089 47.466229 70.791205
7503 5 10.455074 48.329301 70.417548
7504 2 33.633189 7.164482 71.361572
7505 2 33.454037 7.210538 69.756057
7506 5 34.097355 6.996085 70.507509
7507 2 19.968891 27.922544 60.405294
7508 2 20.208149 28.164101 61.985263
7509 5 19.504923 28.069241 61.263458
7510 2 12.477639 33.693841 60.547826
7511 2 12.768041 33.22854 62.068042
7512 5 12.607408 34.027133 61.467232
7513 2 31.164715 18.089199 63.484082
7514 2 30.766898 16.821956 64.404804
7515 5 30.499948 17.368937 63.596054
7516 2 7.530676 41.22762 71.305217
7517 2 7.407062 40.769739 69.760238
7518 5 6.919451 41.208541 70.531091
7519 2 27.203978 55.312838 68.749195
7520 2 28.62 54.57548 68.498038
7521 5 28.170501 55.367964 68.938998
7522 2 5.146075 51.26263 70.457055
7523 2 5.89137 50.081518 71.270324
7524 5 5.909647 50.638775 70.425541
7525 2 26.594321 30.291955 65.534176
7526 2 25.19652 29.481995 65.579034
7527 5 25.666571 30.330792 65.867346
7528 2 28.649193 27.958495 67.758412
7529 2 28.131054 28.109736 69.281748
7530 5 28.270281 27.458318 68.519647
7531 2 26.272611 5.281346 63.122032
7532 2 26.939129 4.199696 62.123192
7533 5 26.683372 4.385176 63.084812
7534 2 1.493601 26.249452 70.7733
7535 2 1.005942 27.203584 71.983141
7536 5 1.815079 26.827707 71.505081
7537 2 13.929501 62.126087 73.104993
7538 2 14.63721 61.822292 74.525822
7539 5 13.805895 62.191194 74.081576
7540 2 33.356304 31.267096 64.847238
7541 2 34.668869 32.183957 65.067319
7542 5 34.032098 31.536055 65.513718
7543 2 36.860208 55.590757 63.995945
7544 2 37.90584 54.384819 63.742441
7545 5 37.440571 55.175496 63.314793
7546 2 0.981454 44.190292 67.93049
7547 2 2.052368 44.38464 66.735807
7548 5 1.428221 43.725587 67.183711
7549 2 5.66264 26.19862 64.650903
7550 2 5.623657 24.704103 65.264739
7551 5 5.800013 25.247239 64.429018
7552 2 34.156255 21.26302 63.152805
7553 2 33.927421 22.584057 62.250369
7554 5 34.55153 22.132894 62.90723
7555 2 9.008444 29.911663 66.677141
7556 2 8.305582 29.86193 68.131585
7557 5 9.101826 29.549863 67.590164
7558 2 28.107521 54.854139 64.743069
7559 2 27.747334 53.284965 64.883965
7560 5 27.370394 54.223554 64.922616
7561 2 31.632128 34.865277 60.565909
7562 2 31.719192 34.138327 62.006693
7563 5 31.321457 34.919525 61.500667
7564 2 29.053466 27.936385 75.719894
7565 2 30.355915 28.14249 76.654261
7566 5 29.840026 28.513524 75.866403
7567 2 24.897743 46.357557 67.117448
7568 2 23.676834 46.209677 66.068922
7569 5 24.218446 46.867285 66.615489
7570 2 22.550237 5.339531 75.187947
7571 2 21.540341 4.157308 75.628803
7572 5 22.512539 4.399552 75.485014
7573 2 25.478671 24.457442 64.605403
7574 2 26.134286 25.592096 65.551249
7575 5 26.306936 24.715842 65.074911
7576 2 3.346895 4.591182 63.827061
7577 2 4.035092 3.517516 62.834327
7578 5 3.601206 3.641956 63.740299
7579 2 30.087253 23.344533 73.168762
7580 2 31.278879 22.586236 73.954197
7581 5 30.73652 22.604989 73.099784
7582 2 25.332874 32.22896 73.765304
7583 2 24.008212 33.065429 74.16215
7584 5 25.019354 33.092464 74.124882
7585 2 2.987336 5.507608 70.8159
7586 2 2.803603 5.00079 72.339472
7587 5 3.259817 4.808676 71.456586
7588 2 7.856252 44.873927 71.889281
7589 2 8.935615 46.066032 72.04977
7590 5 8.535001 45.251463 72.497556
7591 2 9.249655 27.347789 73.204961
7592 2 8.916881 26.094925 74.170099
7593 5 9.601684 26.807541 73.95158
7594 2 2.63271 48.664309 64.038913
7595 2 3.28297 49.704315 65.091266
7596 5 3.08729 49.536769 64.112407
7597 2 4.457981 55.705917 68.729104
7598 2 4.152778 54.962968 70.131521
7599 5 4.69802 55.690027 69.685848
7600 2 24.504436 11.206023 72.729257
7601 2 23.53126 10.405136 71.717623
7602 5 23.558642 11.009214 72.529329
7603 2 17.17496 55.062059 65.705436
7604 2 17.250089 56.676444 65.701902
7605 5 17.433351 55.84428 66.248203
7606 2 19.739221 49.822246 72.965597
7607 2 19.277683 50.441084 71.545767
7608 5 19.919897 50.546826 72.320949
7609 2 23.24111 18.640025 73.764149
7610 2 23.688631 18.419329 72.226972
7611 5 24.000765 18.723979 73.140365
7612 2 17.553789 17.470994 72.408064
7613 2 17.929448 19.024458 72.647911
7614 5 17.185391 18.386075 72.396169
7615 2 13.365529 57.201673 75.798278
7616 2 13.745245 57.866842 74.375162
7617 5 14.10797 57.348947 75.165568
7618 2 28.000764 11.60789 73.405346
7619 2 28.100108 11.893967 74.992856
7620 5 27.70139 12.217748 74.120665
7621 2 5.856303 10.863394 65.881087
7622 2 5.310503 10.861914 67.402269
7623 5 5.287641 11.356034 66.519178
7624 2 6.139075 56.716896 71.051308
7625 2 4.759503 56.316021 71.791563
7626 5 5.504144 57.000418 71.751101
7627 2 7.576078 35.576364 71.442791
7628 2 7.122531 34.602012 72.649784
7629 5 7.028927 34.784341 71.658561
7630 2 12.92029 22.443034 70.787918
7631 2 12.932557 22.285274 72.396288
7632 5 12.361417 22.527413 71.596479
7633 2 4.554795 50.888776 72.821622
7634 2 5.427714 51.154916 74.155443
7635 5 5.149656 50.455528 73.478637
7636 2 13.407303 47.948645 64.835542
7637 2 13.420458 47.581723 66.409419
7638 5 13.055743 47.313963 65.503983
7639 2 36.82225 16.363085 72.502194
7640 2 35.850884 17.049038 71.407748
7641 5 36.358473 16.206274 71.645717
7642 2 9.678014 40.385355 63.137933
7643 2 9.309789 40.222221 64.703082
7644 5 9.313041 39.756304 63.804507
7645 2 16.27925 30.716938 70.647899
7646 2 16.340792 30.452524 69.054729
7647 5 15.869963 30.199655 69.914324
7648 2 28.460718 23.984088 60.181915
7649 2 28.763659 23.738124 61.750234
7650 5 29.121804 24.146212 60.895996
7651 2 11.694473 18.892794 76.640061
7652 2 12.752235 20.057527 76.270697
7653 5 11.807673 19.871145 76.583093
7654 2 7.26526 7.63297 62.619744
7655 2 7.888757 6.620797 63.714574
7656 5 7.933149 6.918357 62.74813
7657 2 28.448765 24.24624 76.008235
7658 2 28.937408 24.644332 74.520067
7659 5 29.065154 23.990138 75.281801
7660 2 21.247189 19.104473 68.007055
7661 2 19.914122 19.886161 68.480122
7662 5 20.311667 18.974534 68.291915
7663 2 24.402221 8.582036 76.648493
7664 2 24.925263 8.976194 75.171008
7665 5 24.446434 8.268837 75.714051
7666 2 16.740423 54.388705 63.646876
7667 2 16.300542 54.453902 62.093123
7668 5 16.087479 54.78811 63.024486
7669 2 7.90152 55.40793 61.399301
7670 2 7.587552 56.073723 62.838064
7671 5 8.265347 56.012431 62.088822
7672 2 2.118749 20.461498 74.659735
7673 2 2.735904 20.758902 76.123486
7674 5 2.783185 21.007252 75.143377
7675 2 31.277932 4.507733 68.273522
7676 2 29.999221 4.134632 67.358324
7677 5 30.825413 4.715908 67.421982
7678 2 4.339772 24.846163 62.650636
7679 2 3.501736 25.337533 63.942204
7680 5 3.70481 24.546843 63.34379
7681 2 37.882815 5.390167 63.939466
7682 2 36.898652 4.265276 64.554232
7683 5 37.332227 4.605774 63.70535
7684 2 14.907422 28.690103 62.825473
7685 2 14.572699 28.310995 64.360443
7686 5 14.929451 27.954756 63.482748
7687 2 3.165026 33.71854 76.601561
7688 2 3.545211 32.147803 76.589717
7689 5 3.628488 33.019539 76.082107
7690 2 20.435149 29.643867 68.049879
7691 2 20.952736 30.455466 69.348073
7692 5 20.546198 30.54915 68.42586
7693 2 13.243686 15.310318 60.552039
7694 2 14.218335 14.200529 59.896049
7695 5 13.259219 14.414894 60.13827
7696 2 26.035649 19.521951 62.78351
7697 2 27.421184 20.225817 63.227088
7698 5 26.906496 19.839481 62.445827
7699 2 37.446225 14.852599 67.779972
7700 2 36.763967 16.114339 68.524573
7701 5 37.501259 15.831253 67.891493
7702 2 15.834413 18.977396 64.866092
7703 2 17.286571 19.643263 65.110538
7704 5 16.792635 18.890396 64.648211
7705 2 16.366769 57.370113 69.379075
7706 2 16.892847 56.67019 70.737473
7707 5 16.191133 56.631508 70.009031
7708 2 7.822074 51.983803 64.150092
7709 2 7.686311 52.557189 65.654982
7710 5 7.191474 52.099479 64.899888
7711 2 13.155928 29.421672 73.746965
7712 2 13.184783 29.955851 75.271995
7713 5 13.130029 30.237332 74.301275
7714 2 37.903276 49.478715 67.520601
7715 2 36.734688 50.353978 66.827627
7716 5 37.219053 50.167269 67.696567
7717 2 4.092204 23.049998 76.482763
7718 2 4.765178 21.611367 76.183862
7719 5 4.915876 22.52045 76.602653
7720 2 0.996159 15.021595 68.480432
7721 2 1.050235 14.162035 69.847958
7722 5 1.592111 14.487645 69.057467
7723 2 18.743568 44.592842 68.622251
7724 2 18.785555 45.01385 67.062481
7725 5 18.536028 44.277648 67.710763
7726 2 8.772548 32.800422 74.994254
7727 2 9.680952 32.681662 76.325641
7728 5 9.387027 32.20342 75.48337
7729 2 14.821636 29.6967 60.480332
7730 2 13.529611 28.97123 61.125514
7731 5 14.261212 28.886304 60.431198
7732 2 8.311117 39.184531 71.036901
7733 2 7.80565 38.82085 72.528254
7734 5 7.91896 38.465764 71.58719
7735 2 37.110255 37.618053 76.583368
7736 2 37.824248 36.712943 75.450723
7737 5 37.910555 37.073703 76.392493
7738 2 4.588272 57.413097 73.706466
7739 2 4.047603 58.07323 75.078981
7740 5 3.804031 57.841683 74.124211
7741 2 13.068912 42.592885 63.928625
7742 2 13.894956 41.83628 62.76368
7743 5 13.905764 42.106029 63.739204
7744 2 27.846997 5.798928 75.442478
7745 2 28.662614 6.688391 76.517429
7746 5 28.506724 6.527118 75.530405
7747 2 23.045337 30.915674 68.604614
7748 2 22.316203 30.829134 67.164902
7749 5 22.996565 31.338487 67.714624
7750 2 30.508466 47.293763 69.179918
7751 2 31.146557 47.603805 67.727813
7752 5 31.34511 47.258578 68.658363
7753 2 25.802704 24.148445 67.164749
7754 2 27.110624 23.85301 68.066945
7755 5 26.747184 24.400708 67.297227
7756 2 34.404844 35.095683 69.910528
7757 2 35.643671 35.948477 70.502088
7758 5 35.105934 35.097089 70.604575
7759 2 5.143623 34.006585 61.846455
7760 2 3.842919 33.168338 62.312725
7761 5 4.61078 33.198964 61.653953
7762 2 17.267269 11.417025 67.222456
7763 2 16.300166 11.063582 65.97679
7764 5 16.325704 11.269975 66.967384
7765 2 26.25525 41.519608 72.172319
7766 2 25.325354 40.269913 72.602962
7767 5 25.691933 40.791837 71.816995
7768 2 13.143532 24.63525 62.626981
7769 2 12.8715 24.074534 61.135843
7770 5 12.465172 24.206068 62.053516
7771 2 14.185278 12.921929 65.253072
7772 2 13.788991 12.902633 63.686394
7773 5 14.03817 13.498188 64.465979
7774 2 13.083268 54.436836 60.762522
7775 2 13.806093 53.286108 61.637305
7776 5 13.147325 54.05391 61.669437
7777 2 29.785193 60.692028 66.996403
7778 2 30.512556 60.866744 68.428992
7779 5 29.769645 61.212097 67.834566
7780 2 19.468385 9.821482 63.430712
7781 2 18.708248 10.001184 64.84556
7782 5 18.999156 9.330045 64.145937
7783 2 16.027511 18.114523 74.611249
7784 2 15.208428 17.598699 73.31706
7785 5 15.976012 17.390489 73.943151
7786 2 9.333807 24.401993 76.645357
7787 2 9.789094 24.261658 75.10104
7788 5 9.910257 23.886116 76.033142
7789 2 7.933302 61.627503 72.760861
7790 2 8.299336 61.930814 71.216219
7791 5 7.6126 62.079588 71.944771
7792 2 3.568287 51.963443 62.048278
7793 2 3.70576 51.766774 60.450054
7794 5 4.221365 51.88399 61.313153
7795 2 15.820642 36.067004 64.576165
7796 2 15.333726 37.601573 64.717252
7797 5 15.877803 36.866581 65.151179
7798 2 5.287821 31.459187 72.483457
7799 2 6.334297 31.053327 71.320675
7800 5 5.894757 31.82929 71.799437
7801 2 11.468759 57.905981 68.406295
7802 2 10.016321 57.586609 67.773586
7803 5 10.953383 57.228292 67.907942
7804 2 30.979677 59.607426 59.675272
7805 2 30.085697 60.848102 60.198166
7806 5 31.028476 60.4893 60.114758
7807 2 25.347227 5.794412 65.051745
7808 2 25.040918 7.082803 64.125399
7809 5 25.288658 6.779172 65.058651
7810 2 29.991412 35.965183 68.736823
7811 2 29.179377 36.417459 70.058921
7812 5 29.092018 36.184382 69.077814
7813 2 24.176311 61.517109 73.761147
7814 2 24.073326 61.480208 75.373576
7815 5 24.05462 60.915701 74.53363
7816 2 20.882993 20.029244 75.971468
7817 2 19.679197 20.01702 74.893219
7818 5 20.091506 19.521323 75.673483
7819 2 7.033112 21.351231 70.485981
7820 2 7.658938 22.402326 69.429839
7821 5 7.553185 22.186357 70.413048
7822 2 25.410047 6.116852 67.968545
7823 2 24.853591 4.934851 67.017163
7824 5 25.221238 5.149125 67.935558
7825 2 11.957069 52.854566 63.137964
7826 2 12.015469 53.632995 64.553073
7827 5 11.402931 53.180755 63.886137
7828 2 18.466602 58.569545 68.489557
7829 2 18.874302 57.317188 67.552926
7830 5 18.921824 58.323628 67.649599
7831 2 16.077023 35.422042 67.28518
7832 2 15.276254 36.821471 67.395918
7833 5 16.194688 36.396093 67.388193
7834 2 31.285775 30.354525 66.539776
7835 2 30.773153 30.497204 68.065803
7836 5 30.606954 30.035415 67.180559
7837 2 12.953964 37.498121 67.425409
7838 2 12.926261 38.166606 65.954267
7839 5 13.509127 37.965146 66.756894
7840 2 24.527303 23.205412 60.790309
7841 2 24.614946 21.594771 60.690066
7842 5 24.703763 22.38758 61.313036
7843 2 18.654561 36.50026 71.679576
7844 2 18.890043 36.572342 70.082313
7845 5 19.317512 36.730174 70.986131
7846 2 36.317598 3.351757 68.826427
7847 2 36.478362 3.94068 67.330024
7848 5 36.846996 3.275035 67.997522
7849 2 10.231977 14.197206 73.365989
7850 2 10.218471 14.151417 74.98142
7851 5 10.023226 13.622949 74.14051
7852 2 1.898201 49.655843 76.601048
7853 2 1.000708 50.805108 75.904204
7854 5 1.336129 49.854289 75.814966
7855 2 18.088124 44.418419 73.882963
7856 2 17.129121 43.120175 73.800687
7857 5 17.969731 43.498413 74.218823
7858 2 2.1219 26.708101 68.169177
7859 2 0.988936 26.008093 67.253603
7860 5 1.153537 26.691968 67.98144
7861 2 17.78086 38.389987 70.673334
7862 2 17.248266 37.818545 69.258522
7863 5 16.967269 38.234367 70.137533
7864 2 18.830215 13.068434 61.180601
7865 2 18.256362 14.559441 61.424499
7866 5 18.165899 13.587654 61.692779
7867 2 1.220918 62.151268 67.424579
7868 2 0.999796 62.175614 69.025331
7869 5 1.016643 61.583168 68.204812
7870 2 4.852593 13.687248 65.320867
7871 2 5.47879 12.479904 64.447886
7872 5 5.584143 13.454151 64.701406
7873 2 37.84425 52.585661 65.007309
7874 2 37.899481 53.171358 66.512568
7875 5 37.3828 53.18326 65.642265
7876 2 14.222776 8.073948 64.056986
7877 2 15.075308 8.739832 62.856285
7878 5 14.336233 8.899633 63.529159
7879 2 30.627625 18.763815 75.103342
7880 2 30.944366 19.281482 76.601204
7881 5 30.579397 19.550759 75.696321
7882 2 37.723343 28.140542 74.567609
7883 2 37.094039 28.490919 73.120851
7884 5 37.613317 28.863691 73.905657
7885 2 10.421906 58.339551 64.877814
7886 2 10.141604 57.799461 63.380606
7887 5 9.706316 58.079921 64.250315
7888 2 11.477247 3.195808 70.338523
7889 2 10.223944 2.187778 70.180409
7890 5 10.520968 3.152067 70.100097
7891 2 24.230497 38.543861 62.688111
7892 2 25.34465 38.17737 63.799976
7893 5 25.152316 38.739142 62.980252
7894 2 13.412027 55.016065 67.790793
7895 2 12.82694 56.375191 67.140912
7896 5 13.478128 55.99997 67.818917
7897 2 20.788678 11.942673 67.511185
7898 2 19.614983 11.270909 68.396097
7899 5 20.119064 11.218262 67.519936
7900 2 6.766824 25.854629 72.175862
7901 2 6.960389 26.811054 73.464147
7902 5 6.338585 26.151669 73.013483
7903 2 4.954263 41.709471 67.297773
7904 2 5.809142 40.640187 68.156674
7905 5 5.725981 41.096273 67.256898
7906 2 36.085334 47.318557 68.162067
7907 2 35.40904 48.642047 67.527326
7908 5 36.139191 48.303387 68.141098
7909 2 26.451109 56.732997 60.59174
7910 2 26.850581 57.787816 61.749184
7911 5 26.226647 57.615616 60.970992
7912 2 5.712545 55.525976 61.82699
7913 2 5.292446 53.972748 61.978308
7914 5 5.381615 54.742499 61.327109
7915 2 6.824451 15.597588 65.811407
7916 2 7.573509 16.763365 64.979679
7917 5 7.712582 15.946131 65.560467
7918 2 4.56739 45.91532 63.399151
7919 2 5.712689 44.809948 63.679043
7920 5 5.077229 45.180087 62.983547
7921 2 24.469922 57.385469 76.005533
7922 2 25.227159 58.80394 76.168102
7923 5 25.315992 57.803436 76.29311
7924 2 37.082701 13.253295 72.729187
7925 2 37.92524 14.495563 72.130193
7926 5 37.659621 14.01336 72.979577
7927 2 11.86074 49.959641 76.604305
7928 2 11.03992 50.433071 75.295102
7929 5 11.599724 49.689126 75.692207
7930 2 36.114848 19.596464 60.752898
7931 2 34.774498 20.456613 61.027677
7932 5 35.628751 20.106982 61.443052
7933 2 14.520594 5.250118 60.645122
7934 2 14.273909 3.746439 61.183629
7935 5 14.747165 4.621383 61.370786
7936 2 3.442621 44.071164 71.910325
7937 2 1.8282 44.04131 71.842121
7938 5 2.670379 44.271873 71.330161
7939 2 8.858423 51.063664 69.079168
7940 2 8.517465 49.630933 69.744693
7941 5 8.829557 50.57471 69.93551
7942 2 28.678733 1.463529 65.953955
7943 2 29.697562 2.456071 65.18666
7944 5 29.625851 1.592626 65.709964
7945 2 9.611643 52.93121 66.653966
7946 2 9.246643 51.3584 66.72425
7947 5 9.305116 52.215392 67.259669
7948 2 15.841385 39.116948 61.807388
7949 2 15.480824 39.548581 60.29227
7950 5 16.014699 39.79817 61.115197
7951 2 26.770666 53.686109 62.094028
7952 2 28.379949 53.592056 62.209173
7953 5 27.520729 53.69192 62.734811
7954 2 17.811402 25.126899 72.929685
7955 2 17.345562 24.864079 74.454747
7956 5 17.498403 24.429603 73.553416
7957 2 16.029852 20.107822 73.588861
7958 2 15.444464 21.123566 72.47644
7959 5 16.23399 20.541729 72.726723
7960 2 31.115142 13.036122 65.263746
7961 2 32.051831 12.843101 63.96096
7962 5 32.007708 12.738838 64.966798
7963 2 35.692082 27.307027 74.429867
7964 2 34.240059 27.49634 73.745992
7965 5 34.810833 27.73465 74.547211
7966 2 30.392458 21.509538 65.051444
7967 2 29.071164 20.911505 65.76449
7968 5 29.434529 21.679731 65.214651
7969 2 5.394585 53.158135 76.634629
7970 2 6.027265 53.021764 75.153746
7971 5 5.434249 52.573704 75.840842
7972 2 27.391007 48.74425 70.17701
7973 2 26.847301 47.367191 69.528947
7974 5 27.678141 47.891376 69.772795
7975 2 2.109652 19.266733 67.997808
7976 2 2.747843 18.127416 67.045671
7977 5 2.314052 19.041838 67.059259
7978 2 14.587116 17.378938 61.691914
7979 2 13.338821 18.231509 61.12027
7980 5 13.752105 17.834023 61.954373
7981 2 17.176359 23.138592 71.799388
7982 2 18.211757 24.107629 71.024266
7983 5 18.06791 23.170328 71.378246
7984 2 33.634141 4.953655 64.237223
7985 2 33.665135 4.904731 65.852321
7986 5 34.008603 4.464765 65.007935
7987 2 8.850701 4.932199 71.956848
7988 2 8.729783 4.010479 73.278857
7989 5 8.410265 4.863184 72.836896
7990 2 18.754535 62.150668 67.35381
7991 2 19.112795 60.575008 67.324833
7992 5 18.374978 61.254821 67.19064
7993 2 33.269965 39.788328 68.878588
7994 2 33.074549 39.549135 70.464935
7995 5 32.59292 39.62948 69.578308
7996 2 6.155231 23.154417 72.226288
7997 2 6.648981 21.668735 72.627357
7998 5 6.929134 22.638722 72.555474
7999 2 34.368753 29.305728 65.336203
8000 2 34.099743 29.776702 66.858606
8001 5 33.66327 29.426699 66.015092
8002 2 29.145329 50.064325 70.029683
8003 2 30.004073 49.689449 68.712898
8004 5 29.465665 49.309491 69.481192
8005 2 36.705648 36.886383 73.569172
8006 2 35.811446 37.349438 74.833243
8007 5 36.399849 37.675094 74.076766
8008 2 22.976738 49.44695 60.939851
8009 2 23.196762 48.743072 59.501783
8010 5 22.631893 48.742308 60.341694
8011 2 29.710585 6.628243 67.342464
8012 2 29.356713 6.103314 65.855481
8013 5 30.016627 6.639434 66.404677
8014 2 21.043953 15.884264 76.605957
8015 2 19.608238 16.626265 76.61322
8016 5 20.59594 16.744622 76.426235
8017 2 37.619059 47.126882 64.415357
8018 2 37.901379 47.402943 65.982514
8019 5 37.799125 46.683413 65.277994
8020 2 5.440263 6.593444 64.99387
8021 2 4.258903 5.675821 65.60563
8022 5 4.998033 6.328239 65.834899
8023 2 7.521731 1.008352 70.152065
8024 2 8.153464 1.000326 68.664536
8025 5 8.268389 1.352182 69.606617
8026 2 18.497426 5.120917 60.656307
8027 2 18.070931 5.447589 62.180539
8028 5 17.730832 5.14404 61.276814
8029 2 16.808486 9.575429 68.469555
8030 2 17.308018 9.232371 66.971331
8031 5 17.106133 8.840566 67.882517
8032 2 26.45603 17.757608 67.425369
8033 2 26.359644 18.102163 69.001404
8034 5 25.866866 17.699118 68.214479
8035 2 11.386949 48.744592 65.559947
8036 2 11.21188 47.592352 66.679585
8037 5 10.943821 47.883477 65.747964
8038 2 7.781699 36.626279 60.430526
8039 2 7.408282 37.660772 59.246348
8040 5 8.170261 37.239451 59.762491
8041 2 35.011529 54.970325 65.014694
8042 2 34.626269 56.263412 65.904299
8043 5 35.382228 55.650987 65.625033
8044 2 3.030258 32.343857 67.499649
8045 2 2.371077 32.343388 66.024056
8046 5 2.204737 32.550757 67.000711
8047 2 31.673196 9.266215 75.398322
8048 2 32.158955 8.315257 76.611422
8049 5 31.524904 8.389643 75.825945
8050 2 14.044327 29.870404 65.82378
8051 2 13.066789 31.156452 65.872736
8052 5 13.378458 30.379602 65.303619
8053 2 30.945408 24.08913 70.288093
8054 2 31.362418 23.959578 68.732068
8055 5 31.71472 23.976898 69.680809
8056 2 30.270355 27.749042 66.284079
8057 2 29.931477 28.150194 64.755637
8058 5 30.270012 28.49921 65.643392
8059 2 16.618896 6.028514 70.850907
8060 2 16.916348 5.312259 69.433023
8061 5 16.240314 5.853651 69.956855
8062 2 37.879558 42.94697 74.974076
8063 2 37.302875 42.357584 73.584129
8064 5 37.847428 42.139035 74.408886
8065 2 29.700639 8.23075 70.177536
8066 2 28.153954 8.307881 70.639826
8067 5 28.853532 7.72552 70.197138
8068 2 25.712955 12.470071 71.114674
8069 2 25.849572 14.044461 71.453092
8070 5 25.872295 13.356151 70.71131
8071 2 24.954913 1.005339 75.646427
8072 2 26.257324 1.010527 76.603295
8073 5 25.834531 1.429999 75.784871
8074 2 26.54958 30.840152 62.096794
8075 2 26.94984 30.26419 60.640788
8076 5 26.524327 31.040697 61.131199
8077 2 28.224926 26.528319 64.95016
8078 2 27.997151 26.254231 66.526513
8079 5 28.269705 26.948074 65.841806
8080 2 28.383954 62.162554 65.32455
8081 2 27.257512 61.006901 65.238011
8082 5 27.84598 61.626203 64.695151
8083 2 9.414187 32.284403 65.390118
8084 2 9.919451 33.612181 66.16058
8085 5 9.698813 32.630308 66.269077
8086 2 7.438023 33.743879 76.506727
8087 2 6.915179 33.980151 74.995864
8088 5 7.104834 34.430919 75.882073
8089 2 7.331361 50.182688 73.41231
8090 2 8.482567 50.53052 74.491955
8091 5 7.754322 50.922923 73.908683
8092 2 13.668163 51.493509 62.905706
8093 2 13.457444 50.969394 61.391507
8094 5 13.001343 51.11879 62.282675
8095 2 18.826434 57.810764 75.221297
8096 2 19.515181 58.771937 76.322963
8097 5 19.642626 58.326955 75.42281
8098 2 5.929694 18.019396 76.639114
8099 2 5.217645 17.933249 75.190853
8100 5 5.079276 18.175065 76.163944
8101 2 17.639228 0.969694 67.819776
8102 2 18.395974 0.985233 69.247708
8103 5 18.44322 1.299538 68.286715
8104 2 23.539864 32.217672 60.487822
8105 2 23.492875 33.826435 60.63468
8106 5 23.446322 33.057274 59.978363
8107 2 36.023069 23.888957 63.933334
8108 2 35.459321 24.982687 64.981113
8109 5 35.225643 24.152857 64.450731
8110 2 6.680708 25.191368 62.115561
8111 2 7.394661 24.004386 61.28295
8112 5 6.548918 24.552772 61.375251
8113 2 29.48565 58.476756 76.434872
8114 2 30.881932 59.035312 75.843004
8115 5 30.452165 58.548152 76.619215
8116 2 8.750667 16.879104 70.648417
8117 2 10.2075 17.471588 71.02057
8118 5 9.409148 16.962459 71.378271
8119 2 15.886849 23.427094 67.451206
8120 2 15.512335 23.884832 65.947174
8121 5 15.918801 24.187401 66.823396
8122 2 24.636056 35.573118 61.963172
8123 2 25.408179 36.968405 61.700688
8124 5 25.062666 36.123114 61.264073
8125 2 19.508963 27.708592 68.526426
8126 2 21.002317 27.518441 67.938522
8127 5 20.157324 27.033956 68.213817
8128 2 12.032808 5.395964 69.730841
8129 2 11.347413 4.738996 68.422971
8130 5 11.164629 5.200949 69.304853
8131 2 14.95411 32.29393 62.612342
8132 2 14.061269 31.941695 63.912597
8133 5 14.416888 31.582893 63.035486
8134 2 16.530849 61.046746 73.50828
8135 2 17.671291 61.079065 72.363621
8136 5 17.154914 61.64124 73.028332
8137 2 29.163239 13.26012 76.521622
8138 2 28.964929 13.917813 75.058745
8139 5 29.384397 14.048016 75.970678
8140 2 28.155617 30.263026 63.560057
8141 2 28.729006 29.958208 65.039992
8142 5 28.97266 30.282391 64.112594
8143 2 33.803806 10.532782 65.181985
8144 2 34.292331 11.286537 63.838448
8145 5 33.685103 11.35219 64.645598
8146 2 12.341606 36.663211 75.771606
8147 2 11.1674 35.98797 76.653187
8148 5 12.150189 35.940841 76.415634
8149 2 22.44057 37.493876 60.429917
8150 2 22.920119 35.965578 60.644938
8151 5 23.025885 36.788486 60.065141
8152 2 5.08164 2.425904 72.346075
8153 2 4.418002 1.01245 72.762762
8154 5 4.581557 1.96572 73.061182
8155 2 12.509057 4.970634 65.989579
8156 2 11.756277 6.3013 65.465607
8157 5 12.441277 5.946058 66.120669
8158 2 17.566224 58.896006 66.013866
8159 2 18.871427 58.139517 65.434156
8160 5 18.194767 58.87039 65.253926
8161 2 31.235639 13.047396 73.576031
8162 2 30.158302 13.950396 72.77864
8163 5 30.99061 13.976866 73.354044
8164 2 30.691711 33.952335 74.439033
8165 2 30.353272 35.51183 74.183439
8166 5 31.057302 34.792849 74.074189
8167 2 22.200261 30.140702 65.079166
8168 2 23.569986 30.950576 65.36175
8169 5 23.039456 30.448021 64.66139
8170 2 6.059391 55.672246 76.642155
8171 2 5.280145 55.084072 75.354241
8172 5 5.234131 55.757607 76.108404
8173 2 15.444139 10.885743 60.423674
8174 2 14.080985 11.656604 60.823023
8175 5 14.577947 10.776863 60.883115
8176 2 22.073392 24.37962 73.597735
8177 2 22.517822 25.932853 73.554802
8178 5 22.136634 25.200814 74.140755
8179 2 8.22464 56.94564 72.372692
8180 2 9.187237 55.866305 73.094036
8181 5 8.943433 56.847271 73.041191
8182 2 1.000992 41.325926 65.888531
8183 2 1.27024 40.338372 64.637876
8184 5 1.636238 40.665533 65.523053
8185 2 9.781019 18.966788 74.940816
8186 2 9.155061 19.314025 73.491851
8187 5 9.589517 19.706931 74.317321
8188 2 25.262592 3.290187 73.942879
8189 2 24.426014 2.115267 73.213772
8190 5 25.15607 2.311023 73.886992
8191 2 37.305342 55.619195 70.417416
8192 2 37.515522 56.100202 71.94593
8193 5 37.233944 56.396958 71.020091
8194 2 28.411452 41.896549 72.409433
8195 2 29.276823 41.286279 71.188532
8196 5 28.522897 41.100288 71.837786
8197 2 5.575955 19.74964 72.57757
8198 2 4.422192 19.101579 73.505332
8199 5 5.331414 18.942792 73.089846
8200 2 27.050901 19.872456 67.290203
8201 2 25.449694 19.715594 67.443261
8202 5 26.198573 20.367194 67.245461
8203 2 33.879916 2.033447 72.913678
8204 2 33.628085 0.999145 74.129695
8205 5 33.861421 1.075263 73.147713
8206 2 13.125839 45.641202 73.597451
8207 2 13.68161 46.682814 72.493794
8208 5 12.973407 45.985552 72.68563
8209 2 27.576693 48.384707 64.782578
8210 2 28.242896 48.108869 63.336209
8211 5 27.594818 47.75119 64.026563
8212 2 21.301689 30.994882 62.59658
8213 2 22.916329 30.976584 62.529499
8214 5 22.113587 31.445099 62.930282
8215 2 5.587989 36.765613 60.367878
8216 2 4.252605 36.761503 61.278169
8217 5 5.259706 36.661131 61.292294
8218 2 7.770138 17.642631 73.779185
8219 2 7.397588 17.639274 72.206579
8220 5 7.087874 17.35489 73.127302
8221 2 30.800649 8.991336 60.928789
8222 2 31.592223 9.555223 62.220043
8223 5 31.594772 9.505172 61.209095
8224 2 14.615928 11.578957 76.335845
8225 2 14.261779 10.023967 76.597535
8226 5 14.619958 10.684617 75.919466
8227 2 30.536106 39.364524 63.598296
8228 2 30.85666 38.834651 62.105521
8229 5 30.355493 38.633016 62.961502
8230 2 17.543128 17.166321 61.960207
8231 2 18.024075 18.653286 61.548479
8232 5 17.897566 18.012887 62.32205
8233 2 29.187879 2.568876 71.246764
8234 2 29.554518 0.99508 71.221545
8235 5 28.864414 1.684734 70.951987
8236 2 8.449964 27.707196 75.593395
8237 2 9.371245 26.6541 76.402174
8238 5 9.199951 27.636792 76.230414
8239 2 14.042068 16.543916 63.794397
8240 2 12.606507 16.451433 64.530948
8241 5 13.443029 15.935607 64.288708
8242 2 32.776655 41.007061 65.229739
8243 2 32.363033 40.695732 66.760715
8244 5 32.537011 40.281484 65.85371
8245 2 32.419848 62.159521 66.170849
8246 2 32.293151 60.870743 67.137749
8247 5 31.772122 61.550177 66.59791
8248 2 37.90518 50.388082 64.965144
8249 2 37.727413 49.952542 63.418988
8250 5 37.247978 50.067304 64.303012
8251 2 30.384436 5.03766 63.680356
8252 2 31.393835 6.170389 64.237074
8253 5 31.05248 5.708702 63.403498
8254 2 23.261629 41.001961 72.836418
8255 2 23.563579 40.551532 71.313974
8256 5 23.169362 40.25554 72.198003
8257 2 14.291471 53.735637 64.511243
8258 2 14.477652 54.939903 65.572834
8259 5 14.115471 54.694873 64.659974
8260 2 27.537646 50.856474 63.61413
8261 2 27.366144 51.571843 62.175127
8262 5 28.021927 51.357416 62.915733
8263 2 36.037706 49.685074 75.817851
8264 2 35.381967 48.382792 76.514962
8265 5 36.089874 48.701072 75.865275
8266 2 30.885821 27.139124 71.069544
8267 2 29.770341 28.286631 70.844089
8268 5 30.004049 27.457943 71.376241
8269 2 12.671594 38.313278 74.348252
8270 2 11.472801 38.942658 73.465829
8271 5 11.84777 38.853354 74.401751
8272 2 17.915279 36.181218 74.322594
8273 2 17.985441 35.641331 75.844269
8274 5 18.400529 35.567992 74.924024
8275 2 15.763706 6.697941 61.814636
8276 2 15.528825 6.339155 63.37284
8277 5 15.977353 6.038602 62.516675
8278 2 29.730078 24.896009 66.457543
8279 2 30.568666 25.880596 67.426693
8280 5 30.579668 24.987454 66.950559
8281 2 27.332985 46.729258 67.017243
8282 2 26.906707 45.201939 67.329458
8283 5 26.999594 46.128812 67.725443
8284 2 27.096221 11.623091 69.101322
8285 2 26.990031 10.028824 69.344079
8286 5 27.178596 10.919009 69.787408
8287 2 20.260479 21.506671 66.708179
8288 2 20.291928 22.861398 67.588872
8289 5 19.99869 21.892683 67.577484
8290 2 12.306855 30.237549 62.446197
8291 2 11.466129 29.731094 61.162227
8292 5 11.496071 29.745924 62.173864
8293 2 14.447505 5.842109 65.22436
8294 2 15.599527 4.756448 64.898656
8295 5 14.608104 4.88295 65.058671
8296 2 5.798611 43.63815 66.65937
8297 2 6.964933 43.006949 67.583043
8298 5 6.620206 43.092597 66.635227
8299 2 19.273606 32.526236 68.835563
8300 2 18.752035 32.179369 70.325376
8301 5 19.547618 32.139728 69.700873
8302 2 22.395033 40.673405 68.869567
8303 2 22.108882 40.145808 67.369015
8304 5 21.760859 40.155312 68.319445
8305 2 12.223584 32.57156 67.49011
8306 2 11.20098 32.754802 68.728092
8307 5 12.143438 32.93276 68.404627
8308 2 12.666229 43.430939 66.904191
8309 2 13.237591 42.145934 66.107821
8310 5 13.10244 43.148177 66.065741
8311 2 19.036024 54.092003 63.921211
8312 2 19.102385 54.039691 65.535136
8313 5 19.623093 54.260954 64.695831
8314 2 5.677913 3.994584 64.369569
8315 2 5.401526 5.175431 63.301344
8316 5 6.09874 4.75495 63.902688
8317 2 16.783283 31.696407 60.122583
8318 2 16.36457 31.004694 61.521908
8319 5 16.98341 30.94008 60.723541
8320 2 15.77749 13.225425 72.251348
8321 2 16.038038 11.667111 71.911246
8322 5 16.483989 12.562796 72.064226
8323 2 1.625329 17.675526 69.43925
8324 2 1.904616 17.710645 71.030684
8325 5 1.288363 18.032414 70.295005
8326 2 26.769987 33.630119 66.000333
8327 2 26.150746 32.995195 67.351373
8328 5 26.789107 32.833975 66.582588
8329 2 15.505996 61.658983 65.694792
8330 2 14.383983 61.857614 64.548699
8331 5 15.283314 62.177405 64.885544
8332 2 21.922061 51.551969 70.755656
8333 2 21.953712 52.802667 69.732597
8334 5 22.228577 52.484051 70.653173
8335 2 27.087492 30.94184 73.426349
8336 2 27.767391 31.080206 71.96673
8337 5 27.683185 30.488625 72.783717
8338 2 10.283433 25.24085 65.594084
8339 2 9.744886 24.370225 66.844634
8340 5 10.098476 24.320551 65.897515
8341 2 15.094743 19.743931 68.873033
8342 2 16.027712 19.491218 70.168256
8343 5 16.01494 19.835762 69.216597
8344 2 1.025556 56.837561 73.326917
8345 2 1.708477 57.161921 71.898525
8346 5 1.05267 57.49644 72.593178
8347 2 1.365112 50.245475 62.399443
8348 2 1.942373 50.539623 60.918854
8349 5 2.190578 50.259865 61.859416
8350 2 7.578796 38.38402 64.056775
8351 2 8.555985 37.097305 64.019885
8352 5 7.605828 37.414744 63.875106
8353 2 25.513161 33.408055 76.59751
8354 2 24.177548 32.498096 76.599991
8355 5 24.585624 33.361577 76.264727
8356 2 14.273071 5.845057 70.943003
8357 2 13.448418 7.110453 71.517996
8358 5 14.024725 6.780903 70.753931
8359 2 26.66878 38.548623 72.31332
8360 2 25.844379 38.77734 70.942208
8361 5 26.47885 38.156308 71.428308
8362 2 5.304884 62.156784 61.587089
8363 2 5.759354 61.853245 60.066163
8364 5 5.177894 61.535539 60.831339
8365 2 35.505333 34.572931 68.076987
8366 2 36.396751 33.926931 69.260183
8367 5 36.431159 34.37044 68.350984
8368 2 26.477914 34.739146 75.160312
8369 2 26.117044 34.926727 73.596189
8370 5 25.807666 35.114641 74.541441
8371 2 24.871463 45.899464 64.248855
8372 2 26.081971 46.225903 65.268661
8373 5 25.741965 46.357448 64.324405
8374 2 20.796227 3.628722 60.337629
8375 2 20.996277 4.733963 61.49966
8376 5 20.880557 4.597555 60.503403
8377 2 2.330322 0.999196 65.391621
8378 2 2.927655 1.564076 64.000219
8379 5 3.073186 1.517511 65.000809
8380 2 13.926528 12.21847 71.631981
8381 2 14.408206 11.131363 70.537413
8382 5 13.929494 11.254851 71.420652
8383 2 13.468393 46.203091 59.860963
8384 2 15.066094 46.187364 59.618066
8385 5 14.33916 46.317838 60.310216
8386 2 33.684019 2.563797 61.020436
8387 2 33.033984 1.965741 62.373832
8388 5 33.107255 1.844587 61.371594
8389 2 37.904635 27.449386 70.65914
8390 2 36.781678 28.505555 70.173991
8391 5 37.359151 28.216852 70.953544
8392 2 10.4094 9.187334 61.775164
8393 2 10.730564 7.727233 62.389048
8394 5 10.754654 8.722148 62.573683
8395 2 11.805512 18.451312 69.865165
8396 2 13.034954 18.644137 68.834056
8397 5 12.221904 19.09035 69.239483
8398 2 12.007375 51.460888 59.812803
8399 2 11.667294 52.524744 60.9809
8400 5 12.250656 52.346425 60.173176
8401 2 34.949584 36.111247 76.617116
8402 2 36.429671 35.462402 76.601633
8403 5 35.469576 35.331559 76.309016
8404 2 28.109484 40.535826 66.420184
8405 2 28.151301 40.880128 67.998666
8406 5 27.595136 40.945672 67.15551
8407 2 4.146617 54.891089 73.440272
8408 2 2.675844 55.402496 73.007623
8409 5 3.454679 54.813368 72.741406
8410 2 1.000576 19.992116 64.970262
8411 2 1.794097 19.997695 63.562359
8412 5 1.90148 20.011664 64.568739
8413 2 7.468042 62.163725 62.3812
8414 2 8.853515 61.524448 61.848579
8415 5 8.290802 61.702831 62.670808
8416 2 14.726916 10.639707 68.416987
8417 2 13.469987 11.603276 68.095179
8418 5 14.480253 11.550018 68.127637
8419 2 10.650201 33.599462 74.166533
8420 2 10.304151 35.006211 74.882913
8421 5 10.045903 34.378479 74.132056
8422 2 7.544931 2.332073 74.065667
8423 2 6.640895 1.219335 73.319726
8424 5 6.614559 2.052996 73.893175
8425 2 23.85703 35.452019 66.547111
8426 2 24.236882 35.115575 65.012701
8427 5 23.474542 35.314112 65.64827
8428 2 25.31749 4.845635 60.785415
8429 2 23.927189 5.073551 59.993573
8430 5 24.343823 4.947285 60.907357
8431 2 24.072158 11.090439 63.212742
8432 2 22.899025 12.153527 62.887932
8433 5 23.573407 11.519843 62.477833
8434 2 13.597265 24.34591 69.111038
8435 2 13.798973 24.129078 67.522267
8436 5 14.210181 24.523721 68.358743
8437 2 13.793468 18.577407 65.581269
8438 2 14.371424 18.680961 67.086971
8439 5 14.061037 18.042284 66.365667
8440 2 17.715882 8.256976 73.276038
8441 2 18.538668 8.065684 71.89824
8442 5 17.698491 7.805386 72.399114
8443 2 21.675539 31.10025 59.923649
8444 2 21.294125 29.775172 60.766612
8445 5 22.020117 30.457491 60.587995
8446 2 12.110533 1.834389 67.670539
8447 2 13.079357 1.022699 66.663346
8448 5 12.229711 1.569017 66.72788
8449 2 22.408458 34.647517 63.83804
8450 2 22.057164 34.753798 62.26413
8451 5 21.729273 34.966827 63.197743
8452 2 9.250684 48.694044 60.464907
8453 2 8.22171 48.940466 61.686538
8454 5 8.304766 48.611984 60.732741
8455 2 20.380952 9.060478 67.174725
8456 2 20.671362 9.916657 65.83513
8457 5 20.831313 9.03057 66.297507
8458 2 13.677534 51.388391 69.825723
8459 2 14.263331 51.338803 71.331139
8460 5 14.261073 51.862098 70.464718
8461 2 17.104113 31.867565 66.526224
8462 2 17.708818 30.372376 66.629364
8463 5 17.57949 31.244907 67.125844
8464 2 27.606745 49.665913 61.104301
8465 2 28.150401 49.485853 59.59304
8466 5 27.848634 50.159828 60.285297
8467 2 30.264288 56.584148 65.455866
8468 2 29.851959 56.960522 63.939217
8469 5 30.128716 57.33956 64.836024
8470 2 3.10717 34.123541 70.59394
8471 2 3.197336 33.95259 68.989402
8472 5 2.601651 33.831442 69.79873
8473 2 6.938216 48.243143 68.979025
8474 2 5.547131 47.465217 69.246622
8475 5 6.435269 47.422412 68.762983
8476 2 32.101716 20.823716 63.847014
8477 2 32.346488 20.335068 62.326091
8478 5 31.813631 20.16653 63.170002
8479 2 9.878012 54.45605 61.558711
8480 2 11.062183 55.23177 62.338385
8481 5 10.700384 54.320619 62.086531
8482 2 23.424588 49.63285 63.328884
8483 2 22.065756 48.98976 63.922101
8484 5 22.511056 49.349422 63.087309
8485 2 24.666772 53.687801 61.309208
8486 2 23.250227 54.41469 61.031853
8487 5 23.805223 53.928823 61.724989
8488 2 15.777472 15.803778 62.659942
8489 2 15.789644 15.465893 61.079569
8490 5 16.240959 15.277824 61.965837
8491 2 14.15599 44.354385 71.799863
8492 2 13.794219 44.684404 70.2597
8493 5 14.19712 45.058119 71.10972
8494 2 37.900454 18.214192 69.281607
8495 2 37.502454 18.026633 67.726514
8496 5 37.174502 18.350518 68.627665
8497 2 30.735159 35.55275 66.27248
8498 2 29.946176 34.143203 66.323265
8499 5 30.395185 34.856754 66.883412
8500 2 2.327248 60.471278 75.489409
8501 2 1.852097 59.752666 74.12203
8502 5 1.963803 59.631514 75.120715
8503 2 29.774702 4.684353 75.079121
8504 2 29.260304 4.57417 76.60724
8505 5 29.33744 4.081701 75.726302
8506 2 32.194134 21.923394 68.669614
8507 2 33.494398 20.982684 68.479156
8508 5 32.705717 21.404099 68.004899
8509 2 2.477705 60.163458 63.323902
8510 2 2.935865 60.601797 64.810456
8511 5 2.659773 60.94419 63.898827
8512 2 23.362172 38.116285 65.818635
8513 2 23.531668 39.707283 65.590839
8514 5 23.843224 38.793569 65.286559
8515 2 27.928948 26.820085 71.054576
8516 2 26.433286 27.063719 70.492852
8517 5 27.245655 26.462272 70.439506
8518 2 2.731626 61.915192 70.366089
8519 2 3.069682 62.029681 68.789857
8520 5 3.100032 61.419447 69.59684
8521 2 33.052083 14.595078 70.408155
8522 2 32.571003 14.582127 71.950973
8523 5 32.43477 15.020948 71.049084
8524 2 30.732736 25.074253 59.720796
8525 2 32.335012 25.00253 59.91945
8526 5 31.473189 25.371762 60.300838
8527 2 26.345039 57.766712 73.343081
8528 2 25.900824 56.705415 74.478077
8529 5 25.813936 56.950256 73.499797
8530 2 8.45298 12.346888 75.63013
8531 2 7.955779 13.543591 76.595837
8532 5 8.768626 13.078911 76.211286
8533 2 17.100821 1.890494 71.429672
8534 2 15.953455 1.003539 70.716398
8535 5 16.741959 1.616663 70.55248
8536 2 17.455707 6.870332 76.594099
8537 2 17.888182 6.616726 75.057692
8538 5 17.722163 6.171097 75.951213
8539 2 19.362625 30.82061 61.302763
8540 2 19.159208 30.583222 62.888374
8541 5 19.212123 30.125968 61.986906
8542 2 9.004125 33.486292 72.411685
8543 2 10.392653 33.467683 71.584922
8544 5 9.681345 34.064778 71.987471
8545 2 2.823212 40.935325 67.680294
8546 2 2.909021 42.146659 66.613898
8547 5 2.566706 41.87551 67.527039
8548 2 21.656172 60.992021 67.003279
8549 2 22.642252 62.044761 66.274391
8550 5 22.056039 61.890169 67.084935
8551 2 31.158635 44.764487 67.485249
8552 2 31.266073 45.098875 69.062759
8553 5 31.759799 45.124771 68.179532
8554 2 20.134306 50.046914 62.47538
8555 2 19.601168 50.587202 63.902177
8556 5 20.104153 49.840506 63.439599
8557 2 15.742582 2.74443 64.019253
8558 2 14.907252 2.730743 65.402702
8559 5 15.445188 2.163917 64.759382
8560 2 19.27687 53.603416 75.731066
8561 2 18.827201 54.348296 74.369139
8562 5 18.902116 54.443265 75.374075
8563 2 12.10021 58.808261 76.605245
8564 2 11.357037 57.374759 76.67351
8565 5 11.377657 58.27056 76.202721
8566 2 9.27286 35.740409 61.784479
8567 2 10.259336 34.787691 60.929442
8568 5 9.677661 35.615275 60.893576
8569 2 26.17067 2.781105 68.185945
8570 2 26.100314 1.265509 68.742644
8571 5 26.716125 1.982343 68.38008
8572 2 31.726607 45.062291 75.012008
8573 2 31.528124 45.427381 73.450211
8574 5 32.122328 45.561318 74.25861
8575 2 2.414388 9.39617 71.658814
8576 2 2.601145 8.884834 73.180508
8577 5 3.074765 9.040478 72.299607
8578 2 5.780683 52.706586 59.63024
8579 2 7.284285 53.293116 59.714255
8580 5 6.302249 53.537589 59.733364
8581 2 28.276988 23.189009 66.322254
8582 2 27.299343 22.390743 65.312859
8583 5 27.475558 22.615005 66.284034
8584 2 0.994227 7.490202 72.620763
8585 2 1.047054 5.990546 73.220877
8586 5 1.535358 6.875763 73.171102
8587 2 12.129185 10.57672 76.648846
8588 2 10.95864 9.463473 76.59985
8589 5 11.29892 10.320213 76.181839
8590 2 35.237535 8.669343 71.460537
8591 2 34.99549 9.737171 72.649256
8592 5 34.555436 9.028216 72.076314
8593 2 35.997668 28.101623 68.131722
8594 2 35.184788 29.283183 68.87673
8595 5 35.780187 29.0629 68.088376
8596 2 23.836315 38.756102 74.769761
8597 2 24.780413 39.473654 75.867803
8598 5 23.839408 39.420852 75.498684
8599 2 3.589977 44.611284 68.293161
8600 2 3.276273 46.17819 68.534594
8601 5 3.4976 45.302334 68.99112
8602 2 5.571028 13.230785 75.415729
8603 2 5.509295 14.140282 74.081226
8604 5 6.06097 13.913572 74.899018
8605 2 7.038737 60.509189 76.601005
8606 2 6.086915 61.137858 75.456144
8607 5 6.288659 60.30436 75.993831
8608 2 24.163467 1.966547 67.718544
8609 2 23.828357 3.446566 68.274549
8610 5 24.100498 2.915649 67.456874
8611 2 23.243637 35.340816 69.979957
8612 2 23.64307 34.635923 68.581575
8613 5 23.201308 34.49102 69.480673
8614 2 30.846445 6.428583 61.252903
8615 2 29.332472 6.341104 60.694217
8616 5 30.309756 6.331258 60.430879
8617 2 3.287736 16.097874 75.07605
8618 2 3.150622 14.488716 75.136916
8619 5 2.648772 15.362583 75.231943
8620 2 33.652717 48.447284 66.216019
8621 2 33.291667 48.090561 67.750387
8622 5 33.194101 48.785765 67.02121
8623 2 9.403489 13.538147 60.381696
8624 2 9.827076 13.183492 61.900476
8625 5 9.83151 12.850349 60.944692
8626 2 19.409814 26.245276 62.710385
8627 2 18.245447 25.747533 61.706195
8628 5 19.198618 25.58703 62.006581
8629 2 14.6291 50.686668 73.399704
8630 2 14.655959 51.332904 74.880769
8631 5 14.054849 51.027824 74.125707
8632 2 31.985817 54.243998 64.365367
8633 2 32.752328 55.035425 63.182997
8634 5 32.562393 54.121462 63.574307
8635 2 22.874849 3.081747 61.722348
8636 2 22.809764 2.76592 60.138709
8637 5 22.902801 2.352895 61.058101
8638 2 23.202364 5.505614 68.734529
8639 2 24.179233 6.246625 69.787394
8640 5 23.48644 6.391139 69.063736
8641 2 22.652646 10.65399 67.728489
8642 2 23.54771 10.073532 66.514477
8643 5 22.602032 10.21525 66.846345
8644 2 14.443175 39.943788 66.996983
8645 2 15.520223 38.831984 66.53249
8646 5 15.324377 39.824342 66.569845
8647 2 8.264007 15.022744 74.456635
8648 2 8.718954 15.776208 73.101197
8649 5 7.957349 15.290669 73.558075
8650 2 32.658819 57.174215 66.272047
8651 2 32.381872 56.335177 64.918824
8652 5 32.367502 57.258506 65.333292
8653 2 26.527343 7.879351 69.223466
8654 2 27.822172 7.856652 68.256617
8655 5 26.810239 7.862962 68.278515
8656 2 5.971645 59.719484 73.238926
8657 2 6.69736 58.275462 73.233165
8658 5 6.175396 58.933029 73.798573
8659 2 31.211746 19.690095 65.976473
8660 2 31.631327 19.545776 67.530506
8661 5 31.934003 19.875085 66.622503
8662 2 4.557736 7.80422 61.566945
8663 2 4.639214 7.524322 63.156572
8664 5 4.792723 8.214863 62.432615
8665 2 17.55167 59.626136 76.013064
8666 2 17.986374 59.698439 74.458169
8667 5 18.046072 60.167613 75.353065
8668 2 32.506586 61.780636 64.005604
8669 2 32.645598 62.163223 62.441571
8670 5 31.994883 62.060919 63.210096
8671 2 16.185709 59.345404 64.362439
8672 2 14.849726 59.905884 63.646265
8673 5 15.719943 60.171252 64.08992
8674 2 27.91982 42.218252 69.729255
8675 2 27.319993 40.747826 70.029176
8676 5 27.19763 41.738059 70.199453
8677 2 20.362848 14.505544 69.908549
8678 2 19.042721 15.317362 69.450169
8679 5 19.482598 14.825927 70.217976
8680 2 16.276929 44.532137 72.343114
8681 2 16.985591 45.130241 71.019497
8682 5 17.137893 44.848023 71.979541
8683 2 28.947129 52.915131 71.789128
8684 2 28.784855 51.940694 73.068204
8685 5 28.443794 52.785757 72.627666
8686 2 26.031377 54.452768 75.441935
8687 2 25.552741 55.471861 76.601355
8688 5 25.45582 54.531632 76.239272
8689 2 15.391862 3.097535 73.863755
8690 2 15.056645 3.391309 75.417209
8691 5 15.787948 3.133695 74.76655
8692 2 24.994662 5.674086 76.606658
8693 2 24.901909 5.135582 75.085703
8694 5 24.557865 5.004569 76.028569
8695 2 22.299095 49.874106 72.46646
8696 2 22.540354 50.808725 73.762677
8697 5 22.229637 50.800151 72.799397
8698 2 33.846797 37.792324 75.723109
8699 2 32.497132 37.862322 76.609336
8700 5 32.956832 37.384373 75.844635
8701 2 14.316566 26.822891 68.300824
8702 2 14.827436 26.166094 69.686294
8703 5 14.387598 26.978365 69.272428
8704 2 22.617767 55.5467 65.640047
8705 2 21.282117 55.703882 64.743816
8706 5 22.077882 56.19599 65.12997
8707 2 14.585282 55.389551 76.049376
8708 2 13.552713 55.247487 74.814259
8709 5 13.954504 54.770284 75.611359
8710 2 12.61527 30.834545 69.439389
8711 2 11.214659 30.960478 70.235834
8712 5 11.66806 30.559214 69.424697
8713 2 37.396171 22.844806 65.299803
8714 2 37.544745 24.448601 65.432699
8715 5 37.979977 23.560246 65.647001
8716 2 28.556331 42.591066 61.849314
8717 2 28.882052 43.211118 63.305795
8718 5 28.183137 42.732838 62.751454
8719 2 18.687461 11.875953 63.518995
8720 2 18.335507 12.694294 64.867455
8721 5 19.038122 12.131224 64.405057
8722 2 26.802465 5.064417 73.013702
8723 2 27.952436 4.124258 72.376864
8724 5 27.206201 4.773451 72.1619
8725 2 14.475882 40.421459 76.392179
8726 2 13.964965 38.934299 76.019064
8727 5 14.53815 39.472942 76.656127
8728 2 32.891016 48.506598 62.190922
8729 2 34.163185 49.365128 62.69729
8730 5 33.81792 48.430317 62.519952
8731 2 20.774065 60.052346 72.966933
8732 2 19.54142 60.94082 73.517477
8733 5 19.865377 59.997143 73.347025
8734 2 30.221835 31.7541 61.103283
8735 2 28.802315 31.393836 61.786708
8736 5 29.797898 31.476272 61.94964
8737 2 18.095749 52.148265 63.530293
8738 2 18.113275 52.075767 65.144707
8739 5 17.627446 52.455949 64.342237
8740 2 14.315963 20.732763 70.626165
8741 2 13.103873 20.25173 71.580807
8742 5 13.427672 20.303622 70.623211
8743 2 7.344846 54.129606 63.832766
8744 2 8.194404 53.506145 62.607432
8745 5 7.298534 53.893117 62.876126
8746 2 9.267955 30.460184 63.654707
8747 2 7.830329 30.438559 64.392717
8748 5 8.828867 30.347091 64.530859
8749 2 3.000599 11.357347 72.463158
8750 2 2.283465 11.688021 73.873219
8751 5 2.242955 11.108873 73.044078
8752 2 17.96265 6.891203 65.472952
8753 2 18.849446 7.136081 64.144222
8754 5 18.748933 7.373439 65.123041
8755 2 30.885478 47.080986 75.24806
8756 2 30.176432 46.55462 76.601606
8757 5 30.029685 46.76325 75.622083
8758 2 21.604095 56.071303 70.405915
8759 2 23.098522 56.306982 70.974282
8760 5 22.173967 55.965105 71.204163
8761 2 8.08124 21.614901 61.563001
8762 2 7.138709 20.526546 60.828825
8763 5 7.496903 20.8364 61.723372
8764 2 14.516073 32.819238 65.877684
8765 2 15.012899 34.346549 65.697738
8766 5 14.317672 33.667504 65.414746
8767 2 24.692086 13.211406 61.624691
8768 2 25.697087 14.386185 61.153775
8769 5 25.195668 13.997878 61.94265
8770 2 8.47844 15.419114 67.565135
8771 2 8.711305 15.263841 69.156851
8772 5 8.045192 15.137055 68.405355
8773 2 3.375258 7.87659 70.391336
8774 2 1.851933 7.384481 70.613163
8775 5 2.488892 7.824841 69.961325
8776 2 13.218418 16.980237 74.694561
8777 2 13.203278 16.894096 76.308329
8778 5 12.862927 17.411317 75.507597
8779 2 19.8592 54.385453 72.428507
8780 2 20.913108 54.152265 71.225679
8781 5 20.442561 53.711412 72.00591
8782 2 32.054473 26.331481 65.867036
8783 2 33.557052 25.742051 65.785044
8784 5 32.581403 25.498105 65.899611
8785 2 30.270441 48.989545 74.343433
8786 2 31.070786 50.208488 75.040226
8787 5 30.169361 49.755762 74.95656
8788 2 2.478746 34.339025 61.043854
8789 2 1.565643 34.88667 62.259675
8790 5 2.473236 34.952486 61.816425
8791 2 16.395878 27.260761 67.277084
8792 2 15.160406 28.089797 66.646051
8793 5 15.984869 28.156324 67.229457
8794 2 16.884099 27.582343 73.146723
8795 2 16.341154 27.14786 74.605604
8796 5 17.053181 26.976675 73.906861
8797 2 30.053684 11.129574 68.589824
8798 2 29.111906 9.831079 68.786955
8799 5 29.122664 10.842319 68.744479
8800 2 9.305373 8.920445 69.112719
8801 2 7.951945 8.386722 68.408965
8802 5 8.544212 8.303077 69.225513
8803 2 36.194581 37.07348 65.457387
8804 2 35.709299 37.252721 63.926286
8805 5 35.580862 36.714199 64.773649
8806 2 18.482745 3.354965 62.720801
8807 2 20.08282 3.129084 62.695598
8808 5 19.222684 2.878685 63.16676
8809 2 28.32076 6.865787 72.330915
8810 2 28.817396 5.827976 73.465903
8811 5 29.120893 6.435153 72.715068
8812 2 6.6757 8.962232 70.65745
8813 2 5.363707 8.235735 71.259758
8814 5 5.737652 8.729737 70.459349
8815 2 5.784761 6.113225 76.613656
8816 2 4.220589 5.729092 76.480603
8817 5 5.165749 5.397142 76.335663
8818 2 17.349285 1.107977 75.92955
8819 2 18.095675 1.00164 74.500043
8820 5 18.232836 1.005363 75.502889
8821 2 35.534441 27.446039 65.267658
8822 2 35.467561 26.4989 66.575461
8823 5 35.212239 27.403161 66.199097
8824 2 17.201633 34.066716 64.784722
8825 2 16.115497 32.942675 64.373946
8826 5 16.487358 33.854116 64.138314
8827 2 6.779576 10.701005 69.031817
8828 2 7.876051 10.751898 70.218008
8829 5 7.672978 10.379125 69.299134
8830 2 21.670605 9.438671 63.939917
8831 2 21.444741 10.475365 62.720841
8832 5 22.078743 10.197383 63.459282
8833 2 5.863612 29.385125 74.062301
8834 2 4.410447 29.667648 73.413928
8835 5 5.081645 29.985292 74.101767
8836 2 4.557898 13.026171 67.750013
8837 2 3.028624 12.807993 68.225001
8838 5 3.953448 12.396883 68.210303
8839 2 30.587522 54.494304 75.14381
8840 2 29.910613 54.293729 76.597584
8841 5 29.804137 54.113795 75.607224
8842 2 30.923184 11.272932 75.900357
8843 2 30.2163 11.301683 74.447297
8844 5 30.268885 11.761987 75.347231
8845 2 25.842172 13.300585 66.171159
8846 2 25.693055 13.239017 67.779223
8847 5 26.25069 12.934711 66.991208
8848 2 29.041505 57.675411 61.918366
8849 2 28.882218 57.481157 60.321873
8850 5 29.237388 58.092593 61.046116
8851 2 4.950446 3.595877 75.094172
8852 2 4.295188 4.622243 74.031577
8853 5 4.256736 3.679387 74.397735
8854 2 25.315841 27.605979 73.587416
8855 2 26.652154 28.472042 73.863275
8856 5 26.271722 27.683104 73.355953
8857 2 14.873937 28.557347 75.443498
8858 2 15.903471 28.114544 76.607921
8859 5 15.058574 28.635392 76.409443
8860 2 10.442151 45.95495 74.501859
8861 2 10.841525 45.543294 72.99092
8862 5 10.550857 45.186744 73.892536
8863 2 27.646127 38.86498 74.584071
8864 2 28.475853 40.070591 73.898539
8865 5 28.531092 39.114663 74.226684
8866 2 31.805687 52.166156 60.432313
8867 2 31.284136 52.252345 61.95955
8868 5 31.166957 51.775287 61.074557
8869 2 34.858852 42.922079 67.162686
8870 2 35.260693 43.58355 65.743927
8871 5 35.624449 43.155755 66.586068
8872 2 12.273193 56.342649 69.770201
8873 2 12.871163 55.858934 71.19159
8874 5 13.073848 55.964999 70.20559
8875 2 12.846537 8.360532 76.374393
8876 2 12.516876 8.126121 74.809697
8877 5 12.78634 8.814839 75.500772
8878 2 15.254921 61.453059 76.608051
8879 2 16.439924 62.139249 75.749676
8880 5 16.076937 61.260779 76.097611
8881 2 9.359377 55.009957 63.715495
8882 2 9.022011 54.493691 65.209332
8883 5 9.602404 54.337276 64.394957
8884 2 22.0811 5.12375 65.883611
8885 2 23.148883 6.092812 65.153779
8886 5 23.030208 5.392735 65.875122
8887 2 4.602158 16.295084 73.319851
8888 2 3.441098 15.197904 73.074838
8889 5 4.110388 15.805114 72.618907
8890 2 13.673733 42.029966 68.271117
8891 2 12.095281 42.155246 68.594676
8892 5 13.019639 42.462707 68.869554
8893 2 1.145463 56.713243 68.178016
8894 2 1.412987 56.536542 66.594001
8895 5 1.778475 56.343373 67.517922
8896 2 3.712022 16.296939 66.29957
8897 2 3.681826 15.079916 67.362508
8898 5 3.85578 15.325736 66.396155
8899 2 7.9338 62.063225 66.865935
8900 2 8.133203 61.776604 65.287968
8901 5 7.58731 61.537865 66.106217
8902 2 5.123098 45.679392 67.133766
8903 2 4.671496 45.664412 65.582081
8904 5 4.357391 45.829297 66.530067
8905 2 18.307452 26.293971 71.129608
8906 2 17.146761 26.091898 70.023327
8907 5 17.338553 26.390749 70.971183
8908 2 9.314094 34.238914 64.13859
8909 2 10.210135 33.349461 63.129691
8910 5 10.217874 33.869166 63.998238
8911 2 37.17704 26.082499 62.966443
8912 2 37.071946 25.970024 61.357655
8913 5 37.614435 25.700965 62.168728
8914 2 29.760198 21.552351 75.289726
8915 2 29.114751 22.23413 76.6052
8916 5 28.942259 21.594845 75.839636
8917 2 28.929415 23.589379 71.018474
8918 2 28.31334 24.328996 72.316671
8919 5 28.245192 23.510729 71.724791
8920 2 20.503917 16.860306 68.869198
8921 2 20.793371 17.0739 67.293606
8922 5 20.145881 16.684192 67.966964
8923 2 22.386093 0.999652 65.615265
8924 2 22.259656 2.427044 66.362567
8925 5 22.410871 1.435674 66.499856
8926 2 23.927808 42.574284 62.972361
8927 2 23.114279 42.725509 64.360597
8928 5 23.060507 42.392952 63.406112
8929 2 17.543771 24.684767 64.603775
8930 2 17.655487 25.318705 66.086184
8931 5 17.1744 25.38044 65.197775
8932 2 27.042614 60.610559 61.21579
8933 2 28.545375 60.169464 61.614588
8934 5 27.594748 59.842619 61.496231
8935 2 31.501812 30.919022 76.234925
8936 2 31.746244 32.242419 75.340068
8937 5 32.005169 31.271691 75.463247
8938 2 37.384898 41.54662 76.597894
8939 2 37.551616 39.939131 76.606893
8940 5 37.894964 40.800844 76.201811
8941 2 37.898784 12.021787 66.396811
8942 2 36.436728 11.88917 67.072606
8943 5 37.346592 12.324717 67.156118
8944 2 16.270938 30.251016 63.587161
8945 2 16.061884 30.483786 65.172724
8946 5 15.598281 30.233089 64.308577
8947 2 19.49894 28.332801 65.428041
8948 2 18.855685 27.259707 66.451069
8949 5 19.713258 27.717133 66.168481
8950 2 19.047686 43.175933 65.874898
8951 2 19.191974 41.568213 65.954354
8952 5 18.647206 42.328444 65.56731
8953 2 32.186706 6.336291 75.404233
8954 2 33.146505 7.415927 74.679617
8955 5 33.088654 6.46679 75.026488
8956 2 11.016132 56.420814 74.461288
8957 2 9.792525 56.454092 75.516549
8958 5 10.273735 56.977539 74.796155
8959 2 32.627349 27.109229 68.780119
8960 2 32.737351 28.221483 67.612778
8961 5 32.536126 27.248856 67.807795
8962 2 9.879269 14.354259 66.193701
8963 2 10.312211 12.934045 65.555385
8964 5 9.868037 13.822899 65.36258
8965 2 3.122225 50.585972 71.18149
8966 2 2.399182 50.499172 72.624254
8967 5 2.674152 49.96876 71.807198
8968 2 15.09678 42.973591 69.667295
8969 2 16.367003 43.828404 69.149876
8970 5 15.72843 43.687151 69.922404
8971 2 3.11194 18.566503 75.266671
8972 2 2.684933 17.619479 76.504696
8973 5 2.913981 18.567274 76.233129
8974 2 23.595732 58.483169 67.835084
8975 2 24.411633 59.414818 68.873464
8976 5 24.232709 58.460325 68.588058
8977 2 35.053593 7.510406 64.566215
8978 2 35.551871 6.029798 64.152191
8979 5 35.497864 6.994931 63.851975
8980 2 28.441574 30.06254 68.376592
8981 2 27.328014 31.012422 67.691315
8982 5 27.547972 30.061266 67.958615
8983 2 6.582249 2.981158 61.403033
8984 2 6.208549 4.552503 61.347194
8985 5 6.452166 3.784801 61.960229
8986 2 37.219688 39.810076 67.473532
8987 2 37.788266 40.08386 65.985696
8988 5 37.898289 40.314326 66.965138
8989 2 10.713274 46.96101 61.048774
8990 2 12.149342 47.504351 61.553141
8991 5 11.663052 46.713876 61.149161
8992 2 13.049493 46.754849 70.296041
8993 2 14.511756 46.666005 69.613553
8994 5 13.711482 47.265151 69.772026
8995 2 22.564341 37.01874 62.575692
8996 2 22.792314 36.787838 64.158919
8997 5 22.482159 37.450095 63.4591
8998 2 11.395539 18.633443 66.592539
8999 2 11.041327 19.975493 67.420386
9000 5 11.722185 19.537959 66.812501
9001 2 35.57075 54.938441 73.925427
9002 2 34.602483 55.993425 74.67467
9003 5 34.679927 55.360693 73.888426
9004 2 19.712445 25.717957 76.606842
9005 2 20.166752 26.060284 75.094125
9006 5 20.468409 25.663991 75.975307
9007 2 3.589915 28.381171 74.999254
9008 2 5.014468 27.641693 75.188247
9009 5 4.426488 28.394996 75.521926
9010 2 35.004056 3.686648 63.072497
9011 2 34.695884 4.415313 61.663252
9012 5 35.049406 4.552418 62.601735
9013 2 27.377213 38.045983 62.854577
9014 2 27.853797 38.295002 64.378635
9015 5 27.459096 38.734263 63.556572
9016 2 12.485605 21.859313 60.158249
9017 2 12.090515 20.827624 61.337833
9018 5 11.886597 21.732058 60.9317
9019 2 35.40446 57.083607 62.764744
9020 2 34.211335 56.906345 63.840349
9021 5 34.936471 56.421578 63.326826
9022 2 5.800498 41.752692 75.398907
9023 2 6.908798 42.928888 75.387526
9024 5 6.474961 42.200214 74.834944
9025 2 8.006942 59.63651 74.793596
9026 2 9.219981 60.317358 73.970871
9027 5 8.687701 59.466195 74.100205
9028 2 6.783004 59.372837 64.555354
9029 2 7.00407 57.932468 63.856525
9030 5 6.535496 58.419434 64.610069
9031 2 9.756275 5.80374 74.517481
9032 2 10.696509 6.67638 73.534446
9033 5 10.233712 5.784215 73.654403
9034 2 2.357119 24.886729 61.63845
9035 2 1.548881 24.884393 63.037965
9036 5 1.461924 24.769497 62.036085
9037 2 21.351912 62.158856 73.243755
9038 2 21.89891 61.350629 74.531954
9039 5 21.280462 62.090925 74.225341
9040 2 33.759171 54.789767 61.241798
9041 2 34.990276 54.505228 62.249425
9042 5 34.743387 54.787293 61.309206
9043 2 22.462369 9.217223 75.82766
9044 2 21.209208 8.665126 74.969364
9045 5 21.896576 8.424163 75.672208
9046 2 31.977535 54.796343 66.517731
9047 2 33.347929 54.042839 66.11012
9048 5 32.958149 54.898813 66.48416
9049 2 33.164118 22.556343 66.186824
9050 2 33.41195 22.916097 64.630851
9051 5 33.017753 22.233748 65.266096
9052 2 8.849954 38.86436 61.781016
9053 2 10.025537 38.083026 62.568048
9054 5 9.794445 38.585943 61.720582
9055 2 21.395043 10.673294 69.54226
9056 2 21.368861 11.229453 71.05946
9057 5 20.810183 11.069919 70.230633
9058 2 29.20836 32.097704 68.050708
9059 2 29.753409 31.957562 66.535724
9060 5 29.003253 32.318685 67.111384
9061 2 22.518787 31.761145 72.484323
9062 2 22.183525 31.29086 70.974911
9063 5 22.92954 31.48757 71.630116
9064 2 33.58654 62.159244 69.979161
9065 2 34.051433 61.694388 68.502788
9066 5 33.756643 61.368347 69.414557
9067 2 12.968904 59.8811 72.880338
9068 2 14.405119 59.825968 73.619351
9069 5 13.940897 59.956469 72.72941
9070 2 18.764093 7.006539 67.780203
9071 2 19.604429 6.123741 66.718883
9072 5 19.525792 7.0343 67.153884
9073 2 28.784201 23.330293 63.912146
9074 2 30.165487 23.68386 64.673025
9075 5 29.674385 23.737456 63.78958
9076 2 5.559926 16.247605 67.491592
9077 2 5.208302 15.515098 68.888621
9078 5 5.913859 15.626542 68.171476
9079 2 33.410971 56.39003 76.604029
9080 2 32.321192 55.77543 75.581021
9081 5 32.51016 56.531106 76.227374
9082 2 7.548444 40.938104 63.235539
9083 2 7.345781 41.206994 64.81621
9084 5 6.894751 40.877887 63.971943
9085 2 8.403229 41.661771 73.920474
9086 2 7.873532 42.75535 72.854922
9087 5 8.334663 42.630551 73.747284
9088 2 21.785078 5.846168 70.374204
9089 2 21.302712 6.578635 69.016739
9090 5 21.019555 6.298998 69.947412
9091 2 32.285943 11.876253 60.666732
9092 2 32.507446 11.555834 62.235223
9093 5 32.64962 12.244078 61.506776
9094 2 15.469969 16.358032 70.487123
9095 2 15.505924 15.491201 71.85065
9096 5 15.462238 16.428515 71.471097
9097 2 17.982131 53.960919 67.500367
9098 2 16.711022 54.241631 68.458166
9099 5 17.38369 53.54445 68.164937
9100 2 33.760048 17.874119 69.801448
9101 2 35.12329 17.632588 68.967704
9102 5 34.730419 18.051918 69.800976
9103 2 6.506298 21.838388 64.98343
9104 2 6.840111 20.451425 65.742902
9105 5 7.165405 21.393725 65.567453
9106 2 11.343747 54.216273 67.747735
9107 2 10.968395 54.609441 66.225755
9108 5 11.129869 54.975669 67.155448
9109 2 12.140539 43.157062 60.550358
9110 2 12.791392 43.566136 61.971957
9111 5 12.433989 43.925053 61.095619
9112 2 36.984703 2.535656 72.264649
9113 2 37.895144 3.367868 73.308879
9114 5 37.899623 2.623472 72.623035
9115 2 7.741804 12.502013 62.071891
9116 2 6.59324 12.065076 61.022233
9117 5 6.766296 12.487627 61.925577
9118 2 16.936325 25.113741 76.602017
9119 2 17.518643 26.61884 76.515529
9120 5 16.676573 26.058089 76.483833
9121 2 9.539155 28.306639 69.354195
9122 2 10.569578 28.010888 68.144792
9123 5 9.919929 27.588067 68.795719
9124 2 27.965962 55.647274 75.458712
9125 2 28.027644 57.140155 74.84276
9126 5 28.028017 56.154024 74.614565
9127 2 16.978724 37.984675 63.314019
9128 2 17.290984 38.609843 64.771261
9129 5 16.949774 38.817951 63.841318
9130 2 9.876749 6.825771 71.499315
9131 2 9.489074 6.46296 69.97289
9132 5 9.131359 6.811626 70.853231
9133 2 7.893992 51.755113 71.545062
9134 2 9.220577 52.191444 72.3585
9135 5 8.713388 51.406519 71.969682
9136 2 1.003161 50.076203 64.563401
9137 2 1.004348 51.4289 65.447767
9138 5 1.488094 50.92133 64.717775
9139 2 32.307154 57.935282 68.621932
9140 2 33.113547 58.878111 67.58622
9141 5 32.28352 58.807273 68.161168
9142 2 11.978621 44.439455 71.46947
9143 2 11.679513 43.782237 70.023616
9144 5 11.620699 44.631911 70.570535
9145 2 14.652587 36.3666 71.507758
9146 2 14.263794 36.006368 73.034509
9147 5 14.966927 35.894653 72.315029
9148 2 20.309869 20.103202 70.633641
9149 2 20.527168 21.702617 70.552727
9150 5 20.864882 20.845385 70.971808
9151 2 7.93592 10.157798 67.106458
9152 2 9.521983 9.847664 67.095656
9153 5 8.737146 10.147196 66.530997
9154 2 2.244187 59.854401 71.091243
9155 2 0.996777 59.639196 72.096008
9156 5 1.336886 59.472732 71.157316
9157 2 30.178314 49.337772 63.116996
9158 2 29.667694 49.774928 64.586709
9159 5 29.511795 49.887704 63.592976
9160 2 30.492188 0.998203 73.213505
9161 2 30.305073 1.49336 74.740496
9162 5 29.832125 1.348993 73.857317
9163 2 12.829135 8.393892 65.760857
9164 2 12.009157 8.199152 64.381869
9165 5 11.972262 8.592072 65.313953
9166 2 15.542463 52.635775 63.07331
9167 2 16.096092 51.161973 63.43841
9168 5 16.065865 51.876748 62.722371
9169 2 26.793256 21.312987 76.610199
9170 2 26.089269 21.547786 75.174522
9171 5 26.547629 22.005726 75.952162
9172 2 17.098118 29.862502 75.163884
9173 2 17.666255 30.273022 76.620108
9174 5 16.833169 30.208798 76.04882
9175 2 27.902171 12.357784 71.287929
9176 2 27.778181 13.541143 72.38163
9177 5 28.421274 13.029001 71.791149
9178 2 29.353627 46.208977 63.289822
9179 2 27.890786 45.608592 63.623782
9180 5 28.878882 45.39379 63.57847
9181 2 17.953236 47.030257 70.469764
9182 2 16.360577 47.213419 70.674178
9183 5 17.265737 47.323709 71.113551
9184 2 16.695636 31.843462 74.297473
9185 2 16.980681 32.390365 75.791308
9186 5 16.636892 32.642374 74.873251
9187 2 16.293956 48.975399 72.839449
9188 2 16.472981 48.361656 74.323756
9189 5 16.905358 48.937908 73.612763
9190 2 2.687673 15.666571 70.81423
9191 2 3.111663 16.058824 69.304837
9192 5 3.401365 15.566646 70.140517
9193 2 17.729989 35.862157 65.901734
9194 2 18.002456 36.274672 64.363069
9195 5 18.417314 35.872474 65.194127
9196 2 22.092962 3.673837 70.513945
9197 2 21.852024 2.93422 69.097325
9198 5 21.395952 3.303935 69.921848
9199 2 18.171099 16.199673 75.003437
9200 2 17.841576 15.345641 76.33533
9201 5 17.60298 15.476451 75.360401
9202 2 24.345847 14.079779 69.302158
9203 2 24.963752 15.276329 68.40865
9204 5 24.125045 14.746362 68.609234
9205 2 9.770833 48.67939 63.248151
9206 2 11.126056 49.230129 62.561162
9207 5 10.284613 48.689355 62.406033
9208 2 33.877296 36.59539 71.643838
9209 2 33.674069 38.146219 72.050683
9210 5 34.145305 37.284827 72.296585
9211 2 11.202626 13.80692 71.430288
9212 2 10.919223 15.350602 71.044769
9213 5 10.53674 14.413609 71.028099
9214 2 29.3484 51.889983 68.817722
9215 2 30.206765 52.123964 70.166929
9216 5 29.328234 52.321472 69.70465
9217 2 34.824425 8.829402 74.64653
9218 2 35.397841 9.620905 75.933625
9219 5 35.159482 9.705035 74.953505
9220 2 18.11451 37.815868 76.139527
9221 2 19.459368 38.474291 75.531471
9222 5 18.939687 37.612332 75.638641
9223 2 14.554227 44.04955 59.696835
9224 2 14.797595 43.298183 61.10684
9225 5 14.953464 44.156002 60.592663
9226 2 14.068253 19.10547 74.786135
9227 2 13.852592 20.363716 73.795074
9228 5 13.973531 19.35968 73.837644
9229 2 27.168863 48.988205 76.47139
9230 2 28.376508 48.494633 75.517516
9231 5 28.088307 48.630703 76.47822
9232 2 13.376968 28.580545 71.725447
9233 2 14.117104 28.937067 70.333691
9234 5 14.113229 28.30913 71.127546
9235 2 1.179688 34.599466 72.168888
9236 2 0.993063 35.076654 70.636127
9237 5 1.01164 34.274226 71.252804
9238 2 24.695081 61.679921 71.236504
9239 2 25.068956 61.343423 69.700638
9240 5 24.887944 60.941245 70.61169
9241 2 36.941152 60.460644 64.307392
9242 2 36.887463 61.903503 63.581326
9243 5 37.499642 61.210996 63.993878
9244 2 15.395154 55.789002 72.087583
9245 2 15.234761 56.258784 73.625593
9246 5 14.774468 56.214965 72.725183
9247 2 32.043447 1.008729 70.908893
9248 2 33.520925 1.649453 70.773148
9249 5 32.574762 1.677035 70.414622
9250 2 33.050856 28.290248 60.340736
9251 2 33.286814 27.280022 61.579955
9252 5 33.741335 27.918164 60.939086
9253 2 26.521123 43.816739 68.996735
9254 2 26.216763 43.744409 70.582304
9255 5 25.896452 43.45223 69.667667
9256 2 2.715158 17.58606 73.072919
9257 2 1.217359 18.19303 73.063872
9258 5 1.911277 17.719965 73.628864
9259 2 26.64809 24.470506 62.742572
9260 2 26.045532 24.725915 61.264875
9261 5 26.757689 25.011594 61.924988
9262 2 10.754774 20.0325 70.976348
9263 2 10.431959 20.50862 69.466051
9264 5 10.341934 20.753265 70.444096
9265 2 35.670105 41.170962 72.710179
9266 2 35.810432 40.662421 71.18257
9267 5 35.632149 41.46723 71.769958
9268 2 13.539807 32.403314 74.203225
9269 2 14.649257 31.622132 75.081159
9270 5 14.50582 32.354437 74.397286
9271 2 13.694311 20.061808 62.832394
9272 2 14.269405 20.533042 61.397438
9273 5 14.133624 20.809256 62.361697
9274 2 5.129386 31.688335 67.531253
9275 2 5.53688 31.704889 69.095085
9276 5 5.832913 31.421895 68.169446
9277 2 22.102386 23.064922 66.356094
9278 2 23.248377 23.393216 65.264846
9279 5 22.788167 23.727114 66.10225
9280 2 30.782138 31.401094 64.673359
9281 2 30.729702 32.605967 63.59752
9282 5 31.203045 31.748036 63.851349
9283 2 10.791225 56.5721 71.383043
9284 2 10.164664 56.943737 69.940406
9285 5 10.388539 57.304658 70.859179
9286 2 10.289165 38.857435 66.299648
9287 2 10.349233 37.985414 64.940285
9288 5 9.748439 38.299176 65.692035
9289 2 9.89618 11.019041 68.90434
9290 2 9.815507 11.770111 70.333074
9291 5 9.579587 11.83959 69.351217
9292 2 12.91352 40.902556 70.469287
9293 2 12.915925 40.249073 71.947411
9294 5 13.477916 40.42833 71.124878
9295 2 11.617305 8.135751 72.174315
9296 2 10.906507 8.863154 73.430319
9297 5 11.748192 8.823362 72.869506
9298 2 37.906488 40.208241 73.031987
9299 2 37.524503 39.527301 74.447015
9300 5 37.69203 39.348157 73.464992
9301 2 16.386037 10.561226 62.384749
9302 2 16.5842 11.300445 63.808189
9303 5 16.580061 10.403543 63.339066
9304 2 37.595112 20.499738 68.414897
9305 2 37.408956 20.384911 66.81363
9306 5 36.931388 20.332218 67.704517
9307 2 23.381331 31.057348 75.133109
9308 2 21.834744 31.526181 75.145744
9309 5 22.608572 31.22308 75.723539
9310 2 16.59746 14.186158 66.534831
9311 2 15.844277 14.20576 67.964595
9312 5 15.818456 13.830745 67.024795
9313 2 19.313231 42.201872 76.265872
9314 2 18.855665 41.490897 74.88854
9315 5 18.669933 41.560504 75.881105
9316 2 14.23112 18.364893 71.460859
9317 2 12.993002 17.791333 72.326877
9318 5 13.322649 17.986872 71.390061
9319 2 25.388734 36.898762 72.938097
9320 2 24.121272 36.263756 73.714113
9321 5 24.635406 37.11734 73.536387
9322 2 6.658655 25.960363 75.470162
9323 2 6.598119 27.100526 76.613953
9324 5 6.675313 26.105387 76.445826
9325 2 21.674764 16.245888 72.378021
9326 2 21.018258 14.822119 71.985875
9327 5 21.861875 15.37988 71.944142
9328 2 27.381878 6.097927 66.993455
9329 2 27.38648 7.467491 66.135452
9330 5 27.202209 6.47289 66.098831
9331 2 28.884106 26.78108 62.098373
9332 2 28.587671 25.501126 63.039512
9333 5 28.246139 26.409826 62.752897
9334 2 26.332825 20.243609 69.437331
9335 2 26.869276 21.385132 70.447798
9336 5 26.173026 21.16677 69.746312
9337 2 12.206352 52.469756 72.295174
9338 2 12.101354 51.01902 71.590734
9339 5 12.158457 51.501623 72.478631
9340 2 12.112283 31.317728 76.630611
9341 2 11.401427 31.371506 75.180201
9342 5 11.387991 30.924623 76.0883
9343 2 13.20108 53.341156 66.382013
9344 2 13.331307 52.014926 67.296371
9345 5 12.681682 52.684704 66.904055
9346 2 32.336518 34.325549 70.29762
9347 2 32.712275 34.573134 71.849845
9348 5 32.481205 35.027594 70.975431
9349 2 29.170517 36.910257 62.277858
9350 2 28.249573 36.973223 60.951286
9351 5 29.124148 37.274519 61.362219
9352 2 19.027433 48.252784 61.84994
9353 2 18.369904 48.470886 60.389808
9354 5 18.170839 48.383599 61.378384
9355 2 33.277444 24.298323 75.130052
9356 2 33.666174 22.921987 75.882702
9357 5 32.926683 23.416675 75.40004
9358 2 26.556292 42.807165 64.383395
9359 2 26.963224 44.220306 65.053719
9360 5 26.835267 43.730669 64.17713
9361 2 36.629342 15.140535 74.563659
9362 2 37.899083 16.095924 74.85842
9363 5 37.218247 15.476907 75.280092
9364 2 11.472783 22.626613 69.132356
9365 2 11.479487 24.065984 69.867247
9366 5 11.530203 23.598171 68.971084
9367 2 35.943932 26.082969 70.268964
9368 2 34.50494 26.24941 69.552378
9369 5 35.455521 25.925269 69.426458
9370 2 1.648335 9.354014 63.991964
9371 2 0.99972 9.148553 62.526024
9372 5 1.552442 9.770227 63.102693
9373 2 34.398737 39.05914 63.726296
9374 2 33.607959 38.332247 64.933853
9375 5 34.008962 39.207154 64.620387
9376 2 3.499406 48.548248 66.95017
9377 2 4.941958 47.853121 67.168665
9378 5 4.032763 48.01249 67.583988
9379 2 18.284128 18.468007 76.348379
9380 2 18.210623 18.383581 74.736124
9381 5 17.865416 18.872911 75.55216
9382 2 18.292098 48.707756 63.961233
9383 2 17.741721 49.924584 64.871348
9384 5 17.580128 49.387278 64.028901
9385 2 5.853675 29.825744 65.540882
9386 2 4.657506 29.414807 66.546967
9387 5 5.433661 29.061326 66.001842
9388 2 27.465936 61.703508 70.187867
9389 2 28.012731 62.176041 68.742314
9390 5 27.949458 61.396371 69.384683
9391 2 31.45565 5.53173 70.460451
9392 2 31.5026 7.113408 70.789066
9393 5 31.066716 6.233467 71.034495
9394 2 27.066654 28.308767 62.856877
9395 2 26.684531 28.343797 64.426798
9396 5 27.434814 28.191739 63.764618
9397 2 22.161382 48.010332 71.229714
9398 2 20.891953 47.982753 72.229558
9399 5 21.224739 47.711955 71.312797
9400 2 20.06889 59.486083 64.182623
9401 2 21.372376 60.35847 64.57219
9402 5 20.695068 60.169173 63.844215
9403 2 31.09896 2.96542 62.050099
9404 2 32.068028 4.256431 61.972037
9405 5 31.658687 3.499991 61.438403
9406 2 30.82334 42.9728 68.716285
9407 2 29.963652 41.669452 69.133556
9408 5 30.198832 42.291772 68.37071
9409 2 25.882672 52.147429 65.140366
9410 2 24.884226 51.059707 65.797528
9411 5 25.664806 51.677688 65.980073
9412 2 37.226041 57.025077 66.791794
9413 2 37.76333 57.138872 65.271838
9414 5 37.416726 56.501547 65.977678
9415 2 20.008927 41.891063 62.836704
9416 2 20.170628 41.462274 61.286901
9417 5 19.505739 41.612705 62.035112
9418 2 33.440753 25.246047 67.909812
9419 2 33.439685 23.639107 68.081963
9420 5 33.568846 24.519381 68.564624
9421 2 35.759275 45.84829 63.104943
9422 2 35.085451 45.390169 64.500644
9423 5 35.741781 45.126077 63.776756
9424 2 4.511289 9.784612 73.799929
9425 2 4.215925 8.845572 75.08167
9426 5 4.717019 8.908691 74.204488
9427 2 31.483489 14.435356 60.817522
9428 2 31.77094 14.37462 62.406729
9429 5 32.202844 14.420317 61.492454
9430 2 27.856153 32.038606 64.828039
9431 2 27.538184 32.394231 63.283914
9432 5 27.895686 32.760731 64.157067
9433 2 5.854929 5.964794 59.465667
9434 2 6.680135 7.056208 60.325753
9435 5 5.805015 6.552315 60.25659
9436 2 31.942413 35.804183 64.450462
9437 2 31.129873 36.52776 63.255427
9438 5 31.761339 35.769635 63.481314
9439 2 11.591952 32.596854 65.151569
9440 2 11.873742 32.014196 63.670691
9441 5 11.397426 31.841921 64.547031
9442 2 5.673307 57.451921 68.164461
9443 2 6.01218 56.972105 66.658859
9444 5 6.107197 57.729838 67.323193
9445 2 32.428965 17.498443 75.123089
9446 2 31.919886 17.308956 76.645202
9447 5 32.079559 16.835655 75.764851
9448 2 10.528924 20.773538 65.436684
9449 2 9.657687 19.629956 64.698402
9450 5 9.833267 20.089516 65.582994
9451 2 19.872381 55.068793 67.320745
9452 2 21.087764 54.246929 66.643044
9453 5 20.353202 54.207553 67.33831
9454 2 26.359455 49.130955 62.837231
9455 2 25.835949 49.633422 64.28131
9456 5 25.570046 49.157854 63.428281
9457 2 22.339545 46.904473 74.754637
9458 2 23.206116 45.567627 74.482986
9459 5 23.250311 46.57541 74.566343
9460 2 33.971871 27.999436 63.541012
9461 2 32.758702 27.99431 64.608761
9462 5 33.569147 27.484758 64.280033
9463 2 2.896943 21.437211 66.307749
9464 2 3.458093 21.975104 67.724674
9465 5 3.069021 21.174433 67.242932
9466 2 12.736142 39.355697 69.072875
9467 2 12.306619 39.749838 67.56554
9468 5 12.752286 40.08603 68.409864
9469 2 20.290833 58.089423 69.624604
9470 2 19.013099 57.27208 70.182494
9471 5 19.873214 57.196147 69.654324
9472 2 11.87195 54.483343 73.618784
9473 2 11.348713 54.546908 72.091015
9474 5 11.120789 54.238827 73.027852
9475 2 3.535843 36.070986 69.663962
9476 2 3.880167 36.871097 68.302654
9477 5 3.898641 36.918818 69.313549
9478 2 13.313747 45.881472 63.85365
9479 2 13.843134 45.617705 62.349632
9480 5 13.297908 46.238634 62.934185
9481 2 4.617486 25.516427 74.777459
9482 2 5.280209 24.39687 73.818665
9483 5 4.602403 24.5558 74.553408
9484 2 28.212602 5.939081 63.925713
9485 2 27.200911 7.183142 63.723996
9486 5 28.083633 6.89607 64.127628
9487 2 11.439021 7.23841 67.593914
9488 2 9.859068 7.072537 67.890778
9489 5 10.775739 7.130207 68.316119
9490 2 34.548736 23.52554 72.065592
9491 2 34.847681 23.794005 73.630985
9492 5 35.165656 23.305683 72.803361
9493 2 2.39267 45.991939 72.684491
9494 2 0.999644 45.458327 73.306289
9495 5 1.608066 46.262398 73.217858
9496 2 35.303479 53.19164 72.108632
9497 2 34.793256 52.48602 73.470127
9498 5 34.921757 52.358662 72.474238
9499 2 19.95486 23.932996 72.356532
9500 2 19.908091 24.19929 73.949892
9501 5 19.959608 24.642897 73.04155
9502 2 32.371108 32.254174 71.03867
9503 2 31.59998 31.447578 69.869628
9504 5 31.569522 32.266494 70.463745
9505 2 31.293961 46.87181 64.415394
9506 2 32.038009 46.88041 65.850042
9507 5 32.172067 46.980233 64.851748
9508 2 17.197509 11.352947 69.942612
9509 2 16.347389 12.336877 68.982886
9510 5 16.750186 12.231442 69.905473
9511 2 18.644629 4.945024 70.745063
9512 2 19.474121 6.115637 71.489042
9513 5 18.812607 5.917134 70.749094
9514 2 30.301235 47.208634 73.053534
9515 2 29.556475 47.467786 71.642836
9516 5 29.669849 47.807933 72.589395
9517 2 14.03295 2.125034 71.476282
9518 2 13.609747 2.18504 73.034869
9519 5 13.394311 1.768081 72.138063
9520 2 33.845531 30.903324 76.610645
9521 2 34.83229 31.134954 75.351856
9522 5 34.747681 31.212033 76.357553
9523 2 21.236596 24.007943 64.567299
9524 2 21.754965 23.427818 63.150739
9525 5 21.091573 23.29295 63.903234
9526 2 30.721083 26.033683 63.056734
9527 2 30.333722 25.99111 64.625184
9528 5 30.939908 25.599819 63.915285
9529 2 32.396542 62.161513 71.824787
9530 2 31.119495 61.173141 71.889362
9531 5 32.039392 61.356679 72.269666
9532 2 5.983526 43.850951 72.585042
9533 2 5.823102 42.285844 72.215448
9534 5 5.329452 43.115278 72.520205
9535 2 3.453877 27.642455 60.917689
9536 2 2.531079 27.171732 62.158156
9537 5 2.751474 27.003273 61.184722
9538 2 12.330542 40.40438 75.88812
9539 2 10.783815 40.634965 75.480247
9540 5 11.405319 40.144323 76.110748
9541 2 9.758434 27.904308 61.049973
9542 2 9.625076 28.630997 62.487344
9543 5 9.175256 28.486696 61.592153
9544 2 36.182764 50.481609 70.061269
9545 2 37.319022 49.588778 70.784915
9546 5 37.074353 50.079037 69.933851
9547 2 13.428203 37.959516 63.673584
9548 2 13.183613 36.482594 63.064672
9549 5 12.85052 37.162311 63.736655
9550 2 3.481075 58.043165 70.933248
9551 2 3.869919 57.711865 69.399972
9552 5 3.382737 57.370091 70.218733
9553 2 26.223867 57.72168 64.63194
9554 2 27.66723 57.082318 64.285796
9555 5 26.853858 57.005332 64.883313
9556 2 8.678214 4.874406 62.419652
9557 2 8.456037 4.118795 61.008417
9558 5 8.356954 5.000548 61.495471
9559 2 20.506793 36.152381 64.576148
9560 2 19.813412 37.451395 63.910055
9561 5 20.439967 36.674457 63.741761
9562 2 37.254172 21.973218 62.829817
9563 2 37.778914 21.637263 61.338617
9564 5 37.910922 21.439761 62.322535
9565 2 26.485339 36.686846 64.997403
9566 2 25.820181 37.362088 66.306414
9567 5 25.705384 36.646212 65.600106
9568 2 5.427711 50.925979 63.277935
9569 2 6.227367 52.029053 62.408641
9570 5 5.973464 51.050887 62.465665
9571 2 28.019675 33.848608 73.29383
9572 2 28.526923 34.02052 74.818639
9573 5 28.419657 34.489612 73.928148
9574 2 30.643351 25.987618 76.33867
9575 2 30.447081 26.487501 74.81437
9576 5 30.662055 25.68932 75.398511
9577 2 26.195526 9.90541 61.113901
9578 2 25.267395 9.055314 60.100093
9579 5 25.26456 9.769874 60.816978
9580 2 25.32733 58.823554 62.952066
9581 2 24.390349 59.299929 64.179677
9582 5 25.026769 59.615061 63.458436
9583 2 12.043414 34.364368 70.144406
9584 2 12.409975 35.747188 70.896294
9585 5 11.665101 35.21939 70.459123
9586 2 17.831971 22.883949 61.333453
9587 2 18.202491 24.062649 60.291687
9588 5 18.461536 23.62497 61.166822
9589 2 23.450383 54.462162 67.363556
9590 2 25.065299 54.522677 67.380332
9591 5 24.22433 55.02899 67.13346
9592 2 13.378841 15.834985 70.932316
9593 2 12.816842 16.459539 69.551741
9594 5 13.022347 15.598901 70.043267
9595 2 9.359933 10.160792 75.154317
9596 2 8.980114 9.913083 73.603101
9597 5 8.634475 10.251998 74.492031
9598 2 17.513259 14.092951 70.864225
9599 2 17.522663 15.703535 70.997739
9600 5 17.136514 14.921605 70.483928
9601 2 23.11773 28.106351 67.988909
9602 2 24.313435 27.987314 69.069656
9603 5 23.751433 27.473588 68.402747
9604 2 17.957941 22.716206 67.686127
9605 2 17.717804 23.119003 66.139523
9606 5 18.180584 23.387804 66.998655
9607 2 19.029826 48.183757 74.249517
9608 2 18.264996 48.707455 75.573401
9609 5 18.853482 48.98463 74.797911
9610 2 16.900558 40.904191 69.393697
9611 2 16.225117 41.262556 67.969882
9612 5 16.530844 41.644166 68.856128
9613 2 17.194849 10.377367 73.266525
9614 2 15.881672 10.780162 74.118121
9615 5 16.262199 10.116843 73.454997
9616 2 35.827969 40.53341 62.935357
9617 2 36.317788 39.938462 64.355924
9618 5 36.584488 40.515537 63.56828
9619 2 23.854873 51.776494 69.305171
9620 2 24.323186 52.537033 67.958264
9621 5 24.536362 52.387025 68.936313
9622 2 35.009531 6.806579 61.459364
9623 2 36.595849 6.656354 61.729409
9624 5 35.823197 7.30958 61.700544
9625 2 3.179015 35.449449 66.542112
9626 2 3.968375 34.041537 66.460925
9627 5 3.721289 34.878383 65.947929
9628 2 33.913085 25.090475 62.924008
9629 2 35.002498 26.137205 62.350047
9630 5 34.514812 25.828589 63.181579
9631 2 36.860657 46.178842 70.037774
9632 2 37.901791 47.24878 69.41877
9633 5 37.593551 46.285223 69.386022
9634 2 20.804593 41.914269 67.408647
9635 2 20.589215 43.513942 67.489602
9636 5 21.163693 42.778729 67.09722
9637 2 18.62777 28.425104 75.910557
9638 2 18.951701 27.97856 74.391491
9639 5 19.24337 28.576142 75.154611
9640 2 25.049475 50.506458 60.721051
9641 2 25.054077 51.605817 61.905655
9642 5 24.964439 50.619347 61.6974
9643 2 12.097051 13.006628 75.091805
9644 2 11.566141 13.419455 76.561364
9645 5 12.007878 12.686594 76.020706
9646 2 12.456991 58.208253 64.056455
9647 2 13.131608 58.868388 62.744582
9648 5 12.394598 58.257322 63.073128
9649 2 2.372665 60.940848 60.556236
9650 2 3.12256 62.160327 61.306185
9651 5 2.772812 61.216706 61.414732
9652 2 20.109378 46.713787 66.607674
9653 2 21.504005 46.47992 65.825231
9654 5 20.508406 46.621593 65.710173
9655 2 23.069429 27.31774 62.359031
9656 2 23.054234 28.62839 61.413589
9657 5 22.998088 28.301621 62.369934
9658 2 19.419864 25.827815 64.872403
9659 2 19.785216 24.767762 66.036319
9660 5 20.074014 25.625193 65.582517
9661 2 36.823584 32.580795 72.106306
9662 2 36.010997 33.968424 72.267814
9663 5 36.54948 33.398657 71.627557
9664 2 9.096763 35.597422 68.648333
9665 2 9.483202 35.318912 70.192675
9666 5 9.83859 35.631015 69.297791
9667 2 10.647365 1.252102 62.403629
9668 2 10.33086 0.982256 63.965328
9669 5 10.224167 1.641857 63.205018
9670 2 5.956615 33.903449 65.526631
9671 2 6.494467 34.839202 66.729535
9672 5 6.078222 34.841475 65.806896
9673 2 8.868535 43.03732 64.42191
9674 2 8.669023 42.632115 65.97365
9675 5 9.351777 42.87184 65.265903
9676 2 34.671893 62.161721 64.069102
9677 2 35.416368 61.977813 65.491716
9678 5 35.034699 61.488366 64.692156
9679 2 30.557783 42.003238 62.54869
9680 2 31.77754 42.935007 63.054551
9681 5 31.204957 42.688369 62.257152
9682 2 10.611226 21.190334 62.925362
9683 2 10.809929 22.751069 62.555875
9684 5 11.228609 21.954125 63.0186
9685 2 16.859764 52.363226 70.066149
9686 2 17.738566 51.483074 69.034192
9687 5 17.616366 51.732879 70.00743
9688 2 29.155855 60.033805 74.92022
9689 2 29.370032 60.386155 73.357571
9690 5 29.757406 59.891771 74.151329
9691 2 24.339723 19.737091 75.964735
9692 2 25.749442 19.074591 75.533826
9693 5 24.941958 19.584485 75.198409
9694 2 1.618487 43.538904 75.864377
9695 2 1.548162 45.077023 76.355438
9696 5 0.999906 44.287429 76.038445
9697 2 11.653324 41.679106 62.509676
9698 2 10.95201 41.993916 63.931277
9699 5 10.990486 42.25838 62.955006
9700 2 5.350948 27.047141 66.886303
9701 2 4.01737 27.372675 66.03337
9702 5 4.393589 27.27097 66.967524
9703 2 7.973491 31.567131 62.171178
9704 2 8.259923 32.409731 63.520207
9705 5 7.535343 32.042788 62.916167
9706 2 16.358634 21.214565 67.537618
9707 2 17.822194 20.530736 67.490043
9708 5 17.048458 20.861166 66.927304
9709 2 22.557809 17.618303 69.098799
9710 2 22.713898 17.140445 70.634762
9711 5 23.219418 17.391781 69.794639
9712 2 33.329767 34.837062 75.842638
9713 2 34.132988 33.592617 76.489235
9714 5 33.339659 33.853415 75.917273
9715 2 19.215304 33.477624 61.960714
9716 2 20.761652 33.010283 61.912772
9717 5 19.867052 32.853675 62.359641
9718 2 6.367225 1.359681 64.011823
9719 2 6.325499 1.011063 62.434287
9720 5 5.792839 1.000022 63.294914
9721 2 3.84965 39.374492 70.015457
9722 2 2.278337 39.501062 69.659298
9723 5 3.008006 38.86372 69.952396
9724 2 29.472448 5.405182 69.154953
9725 2 29.10696 4.648415 70.535395
9726 5 29.183149 5.552435 70.08654
9727 2 37.173819 44.619876 73.640111
9728 2 37.767096 44.968025 72.177678
9729 5 37.139202 44.360622 72.68889
9730 2 34.44485 44.532521 68.602364
9731 2 33.301149 43.92282 69.567822
9732 5 33.685844 44.776498 69.183412
9733 2 11.933883 35.547289 68.300666
9734 2 11.748649 34.659915 66.962701
9735 5 11.333703 34.905098 67.852775
9736 2 5.886855 60.979289 63.349744
9737 2 5.990043 61.994164 64.603249
9738 5 5.403238 61.687238 63.837754
9739 2 34.500859 50.540422 66.676166
9740 2 33.464693 51.705875 67.100401
9741 5 34.024859 51.337351 66.342159
9742 2 18.926026 33.975922 71.585231
9743 2 18.756179 34.368282 70.026673
9744 5 19.285505 34.552045 70.869627
9745 2 3.986165 5.707491 68.72788
9746 2 4.352553 4.658078 67.554685
9747 5 4.383338 5.632187 67.827983
9748 2 19.854696 59.766276 70.984714
9749 2 19.999181 60.260313 69.452739
9750 5 19.852955 60.565676 70.406625
9751 2 28.635697 36.355515 66.932555
9752 2 28.184116 37.907278 66.934236
9753 5 28.088958 37.021989 66.452847
9754 2 10.448954 10.178336 71.723301
9755 2 9.384175 8.964222 71.659507
9756 5 9.893577 9.643211 71.108135
9757 2 6.933758 1.752692 76.50676
9758 2 8.386864 2.453685 76.601552
9759 5 7.902983 1.568918 76.514529
9760 2 11.050696 42.023237 66.386152
9761 2 9.968442 41.851158 67.574011
9762 5 10.71075 41.390738 67.062622
9763 2 12.294835 13.810802 65.929899
9764 2 11.834357 14.023877 64.395476
9765 5 11.971578 14.484805 65.286118
9766 2 16.645744 51.565703 73.452848
9767 2 16.406045 51.222429 71.891886
9768 5 17.005264 51.053774 72.69002
9769 2 29.420496 19.353797 63.043332
9770 2 29.577367 19.09385 64.630693
9771 5 29.668968 19.783772 63.895748
9772 2 12.011824 0.996815 69.704288
9773 2 13.572597 1.047909 69.288027
9774 5 12.821005 1.560463 69.731791
9775 2 24.985661 2.381746 64.035855
9776 2 25.231879 2.424221 65.63256
9777 5 24.639662 2.054349 64.899757
9778 2 10.728794 21.793226 73.751791
9779 2 11.718822 23.029461 74.073445
9780 5 10.775008 22.777014 73.808846
9781 2 6.136821 37.268929 72.071593
9782 2 5.580287 36.322285 70.885832
9783 5 5.327371 36.820226 71.729998
9784 2 29.207115 62.015966 76.602082
9785 2 28.871824 62.220933 75.034452
9786 5 28.470363 62.157452 75.961451
9787 2 24.426881 30.539321 70.329293
9788 2 23.210375 29.477537 70.261294
9789 5 24.019738 29.77023 70.794013
9790 2 6.826914 5.277241 74.30398
9791 2 7.036152 6.756058 74.921406
9792 5 7.272498 5.777644 75.028054
9793 2 29.685314 18.260203 66.663713
9794 2 31.118207 17.543302 66.452136
9795 5 30.127953 17.381993 66.585938
9796 2 1.910439 7.321291 67.898205
9797 2 1.249313 5.883406 67.570643
9798 5 1.98642 6.354594 68.079742
9799 2 21.517196 41.968833 71.904741
9800 2 21.635769 43.565678 72.12365
9801 5 21.582807 42.671185 72.594398
9802 2 1.000495 16.359081 66.734594
9803 2 1.666827 15.799789 65.372577
9804 5 1.605283 15.66798 66.374259
9805 2 20.333655 26.264995 70.268709
9806 2 20.960921 24.834447 70.683398
9807 5 20.735463 25.763115 71.016972
9808 2 27.008797 36.190102 69.782426
9809 2 26.820109 36.935335 68.360836
9810 5 27.011144 37.074374 69.345062
9811 2 13.121135 28.664708 68.152466
9812 2 14.527509 29.456334 68.23812
9813 5 13.560821 29.523264 67.945611
9814 2 25.354878 27.749266 66.924413
9815 2 26.806656 28.392173 66.622905
9816 5 26.232346 27.566039 66.512455
9817 2 5.257183 33.814636 68.230164
9818 2 5.448914 35.235045 68.976871
9819 5 5.370844 34.235395 69.115191
9820 2 27.479021 10.030912 67.185949
9821 2 27.065965 10.799442 65.825566
9822 5 26.747999 10.15062 66.534406
9823 2 32.761243 33.128534 66.340731
9824 2 31.78078 33.700747 65.190444
9825 5 32.085193 32.864436 65.672569
9826 2 33.985559 20.226255 65.919035
9827 2 33.994632 19.170297 64.695611
9828 5 33.834723 19.278813 65.689181
9829 2 13.689331 36.489017 69.253285
9830 2 15.074751 37.270181 69.540145
9831 5 14.102385 37.384404 69.283269
9832 2 21.726313 21.093271 68.812165
9833 2 22.919717 20.443659 69.687201
9834 5 22.612206 20.66391 68.748343
9835 2 20.692582 7.071445 62.943726
9836 2 21.194313 6.828796 64.460724
9837 5 21.413511 7.282912 63.583081
9838 2 32.247853 28.427368 73.850042
9839 2 31.929301 28.951558 75.345249
9840 5 31.518193 28.701529 74.454742
9841 2 16.419713 53.005177 66.195718
9842 2 15.36123 52.856119 67.407862
9843 5 15.690561 53.468369 66.672186
9844 2 29.00928 45.159655 67.976669
9845 2 29.499603 46.343894 66.992262
9846 5 29.105948 45.412071 67.027895
9847 2 3.32098 31.046284 63.404202
9848 2 3.377555 30.30208 64.837679
9849 5 3.849668 30.416905 63.949731
9850 2 17.387279 54.238752 71.248676
9851 2 16.432212 53.394625 72.242252
9852 5 16.942369 54.261468 72.128886
9853 2 35.838349 19.992908 63.804492
9854 2 35.895241 21.45903 64.482095
9855 5 35.782298 20.470133 64.666087
9856 2 21.660943 32.507905 69.219915
9857 2 21.207852 33.785924 70.099275
9858 5 21.302078 33.424782 69.15841
9859 2 27.922856 44.081056 73.752203
9860 2 27.937125 44.698666 72.258801
9861 5 27.639512 43.912357 72.822425
9862 2 28.48253 35.238657 65.04188
9863 2 29.394213 35.252381 63.707511
9864 5 28.978578 34.660169 64.415367
9865 1 3.140421 4.371887 28.679223
9866 1 3.140421 4.371887 41.460207
9867 1 3.140421 4.371887 54.24119
9868 1 3.375379 3.973352 22.174657
9869 1 3.375379 3.973352 34.955641
9870 1 3.375379 3.973352 47.736624
9871 1 9.404926 4.222199 28.280351
9872 1 9.404926 4.222199 41.061335
9873 1 9.404926 4.222199 53.841542
9874 1 9.787315 4.072512 21.736984
9875 1 9.787315 4.072512 34.517968
9876 1 9.787315 4.072512 47.298175
9877 1 2.705127 9.994328 27.858198
9878 1 2.705127 9.994328 40.639182
9879 1 2.705127 9.994328 53.419389
9880 1 3.064177 10.384652 21.754833
9881 1 3.064177 10.384652 34.53504
9882 1 3.064177 10.384652 47.316024
9883 1 10.071288 10.269702 28.304408
9884 1 10.071288 10.269702 41.085391
9885 1 10.071288 10.269702 53.865599
9886 1 9.860448 10.568446 21.646966
9887 1 9.860448 10.568446 34.42795
9888 1 9.860448 10.568446 47.208933
9889 4 2.199034 4.038406 27.802325
9890 4 2.199034 4.038406 40.583309
9891 4 2.199034 4.038406 53.363516
9892 4 4.314432 3.813559 28.749065
9893 4 4.314432 3.813559 41.530048
9894 4 4.314432 3.813559 54.311032
9895 4 3.293299 4.146408 20.880263
9896 4 3.293299 4.146408 33.661246
9897 4 3.293299 4.146408 46.44223
9898 4 2.493509 4.54747 23.025171
9899 4 2.493509 4.54747 35.806154
9900 4 2.493509 4.54747 48.586362
9901 4 10.262677 4.887898 29.00903
9902 4 10.262677 4.887898 41.789238
9903 4 10.262677 4.887898 54.570221
9904 4 9.700568 3.620923 27.14504
9905 4 9.700568 3.620923 39.925247
9906 4 9.700568 3.620923 52.706231
9907 4 10.201993 5.322434 21.586437
9908 4 10.201993 5.322434 34.366645
9909 4 10.201993 5.322434 47.147628
9910 4 8.568569 3.723872 21.465379
9911 4 8.568569 3.723872 34.245586
9912 4 8.568569 3.723872 47.02657
9913 4 3.499471 9.753691 28.838307
9914 4 3.499471 9.753691 41.618514
9915 4 3.499471 9.753691 54.399498
9916 4 2.718353 11.072457 27.117103
9917 4 2.718353 11.072457 39.898087
9918 4 2.718353 11.072457 52.678294
9919 4 2.706683 10.620868 22.99025
9920 4 2.706683 10.620868 35.770458
9921 4 2.706683 10.620868 48.551441
9922 4 3.523978 11.305515 20.911303
9923 4 3.523978 11.305515 33.692287
9924 4 3.523978 11.305515 46.47327
9925 4 8.960684 9.751796 28.651287
9926 4 8.960684 9.751796 41.43227
9927 4 8.960684 9.751796 54.213254
9928 4 11.114594 10.528024 29.082752
9929 4 11.114594 10.528024 41.862959
9930 4 11.114594 10.528024 54.643943
9931 4 11.156606 10.484444 21.657831
9932 4 11.156606 10.484444 34.438814
9933 4 11.156606 10.484444 47.219798
9934 4 9.025648 10.202122 22.605346
9935 4 9.025648 10.202122 35.38633
9936 4 9.025648 10.202122 48.167313
9937 2 2.400538 3.288073 27.129519
9938 2 2.400538 3.288073 39.910503
9939 2 2.400538 3.288073 52.69071
9940 2 4.470033 2.883222 28.319928
9941 2 4.470033 2.883222 41.100911
9942 2 4.470033 2.883222 53.881119
9943 2 2.971205 5.249169 29.268219
9944 2 2.971205 5.249169 42.048427
9945 2 2.971205 5.249169 54.82941
9946 2 1.366179 4.54368 27.831038
9947 2 1.366179 4.54368 40.612021
9948 2 1.366179 4.54368 53.393005
9949 2 5.111499 4.287885 29.305468
9950 2 5.111499 4.287885 42.086452
9951 2 5.111499 4.287885 54.867435
9952 2 2.484951 4.664314 20.516311
9953 2 2.484951 4.664314 33.297295
9954 2 2.484951 4.664314 46.078278
9955 2 1.994807 5.290855 22.586722
9956 2 1.994807 5.290855 35.367705
9957 2 1.994807 5.290855 48.147913
9958 2 4.124599 3.409339 22.60457
9959 2 4.124599 3.409339 35.385554
9960 2 4.124599 3.409339 48.165761
9961 2 3.76516 3.533763 20.235393
9962 2 3.76516 3.533763 33.016377
9963 2 3.76516 3.533763 45.79736
9964 2 2.865007 4.79758 23.916813
9965 2 2.865007 4.79758 36.697021
9966 2 2.865007 4.79758 49.478004
9967 2 10.679688 3.739031 26.793504
9968 2 10.679688 3.739031 39.574488
9969 2 10.679688 3.739031 52.354695
9970 2 9.11434 2.911012 26.749272
9971 2 9.11434 2.911012 39.530255
9972 2 9.11434 2.911012 52.310463
9973 2 8.399353 4.118618 28.698624
9974 2 8.399353 4.118618 41.479607
9975 2 8.399353 4.118618 54.260591
9976 2 11.234018 4.964321 28.786314
9977 2 11.234018 4.964321 41.567297
9978 2 11.234018 4.964321 54.347505
9979 2 9.923078 5.276328 29.899896
9980 2 9.923078 5.276328 42.680104
9981 2 9.923078 5.276328 55.461088
9982 2 9.640272 6.132768 21.482451
9983 2 9.640272 6.132768 34.262658
9984 2 9.640272 6.132768 47.043642
9985 2 8.209908 2.871853 21.866579
9986 2 8.209908 2.871853 34.646786
9987 2 8.209908 2.871853 47.42777
9988 2 10.506971 3.2906 21.999278
9989 2 10.506971 3.2906 34.779485
9990 2 10.506971 3.2906 47.560469
9991 2 7.802233 4.351044 21.250422
9992 2 7.802233 4.351044 34.03063
9993 2 7.802233 4.351044 46.811613
9994 2 11.104869 5.537807 21.9403
9995 2 11.104869 5.537807 34.721284
9996 2 11.104869 5.537807 47.501491
9997 2 3.404165 8.84167 29.210794
9998 2 3.404165 8.84167 41.991002
9999 2 3.404165 8.84167 54.771985
10000 2 4.321823 10.188858 29.095944
10001 2 4.321823 10.188858 41.876927
10002 2 4.321823 10.188858 54.657911
10003 2 3.387049 11.825947 27.152024
10004 2 3.387049 11.825947 39.933007
10005 2 3.387049 11.825947 52.713991
10006 2 1.914673 9.305891 27.789909
10007 2 1.914673 9.305891 40.570116
10008 2 1.914673 9.305891 53.3511
10009 2 1.923231 11.01814 26.430329
10010 2 1.923231 11.01814 39.211312
10011 2 1.923231 11.01814 51.992296
10012 2 2.268276 9.85664 23.408523
10013 2 2.268276 9.85664 36.189506
10014 2 2.268276 9.85664 48.97049
10015 2 2.681787 11.583416 23.402315
10016 2 2.681787 11.583416 36.182522
10017 2 2.681787 11.583416 48.963506
10018 2 3.648459 12.256062 21.300863
10019 2 3.648459 12.256062 34.081847
10020 2 3.648459 12.256062 46.86283
10021 2 2.91441 9.41263 21.282239
10022 2 2.91441 9.41263 34.062446
10023 2 2.91441 9.41263 46.84343
10024 2 3.82351 11.021298 20.00026
10025 2 3.82351 11.021298 32.780468
10026 2 3.82351 11.021298 45.561451
10027 2 11.758783 11.25625 28.716472
10028 2 11.758783 11.25625 41.497456
10029 2 11.758783 11.25625 54.278439
10030 2 11.211844 10.230543 30.079156
10031 2 11.211844 10.230543 42.86014
10032 2 11.211844 10.230543 55.641123
10033 2 8.239084 9.575581 27.95132
10034 2 8.239084 9.575581 40.731528
10035 2 8.239084 9.575581 53.512511
10036 2 8.770073 9.470737 29.688044
10037 2 8.770073 9.470737 42.469028
10038 2 8.770073 9.470737 55.250011
10039 2 10.217553 10.516655 27.270754
10040 2 10.217553 10.516655 40.051738
10041 2 10.217553 10.516655 52.831945
10042 2 11.669701 10.999824 20.84379
10043 2 11.669701 10.999824 33.624773
10044 2 11.669701 10.999824 46.405757
10045 2 8.132108 10.581709 22.669755
10046 2 8.132108 10.581709 35.450739
10047 2 8.132108 10.581709 48.231722
10048 2 11.786402 10.099172 22.372541
10049 2 11.786402 10.099172 35.153525
10050 2 11.786402 10.099172 47.934508
10051 2 9.360579 9.52758 23.292896
10052 2 9.360579 9.52758 36.07388
10053 2 9.360579 9.52758 48.854087
10054 2 9.376917 10.977086 20.728939
10055 2 9.376917 10.977086 33.509923
10056 2 9.376917 10.977086 46.290906
10057 6 6.273062 0.973916 31.317678
10058 6 6.273062 0.973916 44.098661
10059 6 6.273062 0.973916 56.878869
10060 6 6.564037 0.815387 25.020308
10061 6 6.564037 0.815387 37.801291
10062 6 6.564037 0.815387 50.582275
10063 6 12.891559 1.214553 31.590835
10064 6 12.891559 1.214553 44.371819
10065 6 12.891559 1.214553 57.152802
10066 6 12.705616 1.400242 24.837944
10067 6 12.705616 1.400242 37.618928
10068 6 12.705616 1.400242 50.399911
10069 6 0.303811 7.514694 25.23216
10070 6 0.303811 7.514694 38.013144
10071 6 0.303811 7.514694 50.794127
10072 6 0.018283 7.40227 31.638948
10073 6 0.018283 7.40227 44.419932
10074 6 0.018283 7.40227 57.200915
10075 6 6.752314 7.010051 25.178615
10076 6 6.752314 7.010051 37.959599
10077 6 6.752314 7.010051 50.740582
10078 6 6.655452 7.3189 31.562123
10079 6 6.655452 7.3189 44.343106
10080 6 6.655452 7.3189 57.12409
10081 3 3.027999 1.488665 31.4496
10082 3 3.027999 1.488665 44.229808
10083 3 3.027999 1.488665 57.010791
10084 3 6.046274 0.84065 28.388993
10085 3 6.046274 0.84065 41.169977
10086 3 6.046274 0.84065 53.95096
10087 3 6.522024 3.924719 25.023412
10088 3 6.522024 3.924719 37.804395
10089 3 6.522024 3.924719 50.585379
10090 3 3.02372 1.278976 25.031948
10091 3 3.02372 1.278976 37.812156
10092 3 3.02372 1.278976 50.593139
10093 3 6.248166 1.152026 21.872787
10094 3 6.248166 1.152026 34.652994
10095 3 6.248166 1.152026 47.433978
10096 3 12.714563 1.22908 27.942784
10097 3 12.714563 1.22908 40.722992
10098 3 12.714563 1.22908 53.503975
10099 3 6.714581 4.019458 31.453481
10100 3 6.714581 4.019458 44.234464
10101 3 6.714581 4.019458 57.014672
10102 3 9.756584 0.730753 31.101945
10103 3 9.756584 0.730753 43.882929
10104 3 9.756584 0.730753 56.663912
10105 3 12.352401 0.993496 21.799065
10106 3 12.352401 0.993496 34.580049
10107 3 12.352401 0.993496 47.360256
10108 3 12.597473 4.344097 25.13283
10109 3 12.597473 4.344097 37.913814
10110 3 12.597473 4.344097 50.694797
10111 3 12.856938 4.239884 32.040149
10112 3 12.856938 4.239884 44.821132
10113 3 12.856938 4.239884 57.60134
10114 3 9.624712 0.960021 24.920978
10115 3 9.624712 0.960021 37.701185
10116 3 9.624712 0.960021 50.482169
10117 3 3.327921 6.557199 25.951527
10118 3 3.327921 6.557199 38.732511
10119 3 3.327921 6.557199 51.513494
10120 3 0.118646 7.117422 28.488323
10121 3 0.118646 7.117422 41.269307
10122 3 0.118646 7.117422 54.049514
10123 3 6.374203 6.888785 28.545749
10124 3 6.374203 6.888785 41.326732
10125 3 6.374203 6.888785 54.10694
10126 3 0.406508 10.531182 31.879513
10127 3 0.406508 10.531182 44.659721
10128 3 0.406508 10.531182 57.440704
10129 3 3.249342 6.943102 31.680077
10130 3 3.249342 6.943102 44.461061
10131 3 3.249342 6.943102 57.242044
10132 3 6.391708 7.275951 22.093176
10133 3 6.391708 7.275951 34.874159
10134 3 6.391708 7.275951 47.655143
10135 3 0.467582 7.443324 22.078431
10136 3 0.467582 7.443324 34.858639
10137 3 0.467582 7.443324 47.639622
10138 3 6.559758 10.129489 25.381155
10139 3 6.559758 10.129489 38.162139
10140 3 6.559758 10.129489 50.943122
10141 3 6.634446 10.228017 31.015031
10142 3 6.634446 10.228017 43.796015
10143 3 6.634446 10.228017 56.576222
10144 3 10.05884 7.396586 24.650148
10145 3 10.05884 7.396586 37.431132
10146 3 10.05884 7.396586 50.212115
10147 3 12.703282 10.416863 25.102566
10148 3 12.703282 10.416863 37.883549
10149 3 12.703282 10.416863 50.664533
10150 3 9.707959 7.543747 31.704134
10151 3 9.707959 7.543747 44.484341
10152 3 9.707959 7.543747 57.265325
10153 1 16.107058 4.371887 28.679223
10154 1 16.107058 4.371887 41.460207
10155 1 16.107058 4.371887 54.24119
10156 1 16.342016 3.973352 22.174657
10157 1 16.342016 3.973352 34.955641
10158 1 16.342016 3.973352 47.736624
10159 1 22.371952 4.222199 28.280351
10160 1 22.371952 4.222199 41.061335
10161 1 22.371952 4.222199 53.841542
10162 1 22.753952 4.072512 21.736984
10163 1 22.753952 4.072512 34.517968
10164 1 22.753952 4.072512 47.298175
10165 1 15.671764 9.994328 27.858198
10166 1 15.671764 9.994328 40.639182
10167 1 15.671764 9.994328 53.419389
10168 1 16.030814 10.384652 21.754833
10169 1 16.030814 10.384652 34.53504
10170 1 16.030814 10.384652 47.316024
10171 1 23.038314 10.269702 28.304408
10172 1 23.038314 10.269702 41.085391
10173 1 23.038314 10.269702 53.865599
10174 1 22.827085 10.568446 21.646966
10175 1 22.827085 10.568446 34.42795
10176 1 22.827085 10.568446 47.208933
10177 4 15.165671 4.038406 27.802325
10178 4 15.165671 4.038406 40.583309
10179 4 15.165671 4.038406 53.363516
10180 4 17.281069 3.813559 28.749065
10181 4 17.281069 3.813559 41.530048
10182 4 17.281069 3.813559 54.311032
10183 4 16.259936 4.146408 20.880263
10184 4 16.259936 4.146408 33.661246
10185 4 16.259936 4.146408 46.44223
10186 4 15.460146 4.54747 23.025171
10187 4 15.460146 4.54747 35.806154
10188 4 15.460146 4.54747 48.586362
10189 4 23.229314 4.887898 29.00903
10190 4 23.229314 4.887898 41.789238
10191 4 23.229314 4.887898 54.570221
10192 4 22.667205 3.620923 27.14504
10193 4 22.667205 3.620923 39.925247
10194 4 22.667205 3.620923 52.706231
10195 4 23.16863 5.322434 21.586437
10196 4 23.16863 5.322434 34.366645
10197 4 23.16863 5.322434 47.147628
10198 4 21.535595 3.723872 21.465379
10199 4 21.535595 3.723872 34.245586
10200 4 21.535595 3.723872 47.02657
10201 4 16.466108 9.753691 28.838307
10202 4 16.466108 9.753691 41.618514
10203 4 16.466108 9.753691 54.399498
10204 4 15.685379 11.072457 27.117103
10205 4 15.685379 11.072457 39.898087
10206 4 15.685379 11.072457 52.678294
10207 4 15.67332 10.620868 22.99025
10208 4 15.67332 10.620868 35.770458
10209 4 15.67332 10.620868 48.551441
10210 4 16.491004 11.305515 20.911303
10211 4 16.491004 11.305515 33.692287
10212 4 16.491004 11.305515 46.47327
10213 4 21.92771 9.751796 28.651287
10214 4 21.92771 9.751796 41.43227
10215 4 21.92771 9.751796 54.213254
10216 4 24.081231 10.528024 29.082752
10217 4 24.081231 10.528024 41.862959
10218 4 24.081231 10.528024 54.643943
10219 4 24.123632 10.484444 21.657831
10220 4 24.123632 10.484444 34.438814
10221 4 24.123632 10.484444 47.219798
10222 4 21.992285 10.202122 22.605346
10223 4 21.992285 10.202122 35.38633
10224 4 21.992285 10.202122 48.167313
10225 2 15.367175 3.288073 27.129519
10226 2 15.367175 3.288073 39.910503
10227 2 15.367175 3.288073 52.69071
10228 2 17.43667 2.883222 28.319928
10229 2 17.43667 2.883222 41.100911
10230 2 17.43667 2.883222 53.881119
10231 2 15.937842 5.249169 29.268219
10232 2 15.937842 5.249169 42.048427
10233 2 15.937842 5.249169 54.82941
10234 2 14.332816 4.54368 27.831038
10235 2 14.332816 4.54368 40.612021
10236 2 14.332816 4.54368 53.393005
10237 2 18.078136 4.287885 29.305468
10238 2 18.078136 4.287885 42.086452
10239 2 18.078136 4.287885 54.867435
10240 2 15.451588 4.664314 20.516311
10241 2 15.451588 4.664314 33.297295
10242 2 15.451588 4.664314 46.078278
10243 2 14.961444 5.290855 22.586722
10244 2 14.961444 5.290855 35.367705
10245 2 14.961444 5.290855 48.147913
10246 2 17.091625 3.409339 22.60457
10247 2 17.091625 3.409339 35.385554
10248 2 17.091625 3.409339 48.165761
10249 2 16.731797 3.533763 20.235393
10250 2 16.731797 3.533763 33.016377
10251 2 16.731797 3.533763 45.79736
10252 2 15.832033 4.79758 23.916813
10253 2 15.832033 4.79758 36.697021
10254 2 15.832033 4.79758 49.478004
10255 2 23.646714 3.739031 26.793504
10256 2 23.646714 3.739031 39.574488
10257 2 23.646714 3.739031 52.354695
10258 2 22.081366 2.911012 26.749272
10259 2 22.081366 2.911012 39.530255
10260 2 22.081366 2.911012 52.310463
10261 2 21.36599 4.118618 28.698624
10262 2 21.36599 4.118618 41.479607
10263 2 21.36599 4.118618 54.260591
10264 2 24.200655 4.964321 28.786314
10265 2 24.200655 4.964321 41.567297
10266 2 24.200655 4.964321 54.347505
10267 2 22.890104 5.276328 29.899896
10268 2 22.890104 5.276328 42.680104
10269 2 22.890104 5.276328 55.461088
10270 2 22.607298 6.132768 21.482451
10271 2 22.607298 6.132768 34.262658
10272 2 22.607298 6.132768 47.043642
10273 2 21.176545 2.871853 21.866579
10274 2 21.176545 2.871853 34.646786
10275 2 21.176545 2.871853 47.42777
10276 2 23.473997 3.2906 21.999278
10277 2 23.473997 3.2906 34.779485
10278 2 23.473997 3.2906 47.560469
10279 2 20.769259 4.351044 21.250422
10280 2 20.769259 4.351044 34.03063
10281 2 20.769259 4.351044 46.811613
10282 2 24.071506 5.537807 21.9403
10283 2 24.071506 5.537807 34.721284
10284 2 24.071506 5.537807 47.501491
10285 2 16.370802 8.84167 29.210794
10286 2 16.370802 8.84167 41.991002
10287 2 16.370802 8.84167 54.771985
10288 2 17.28846 10.188858 29.095944
10289 2 17.28846 10.188858 41.876927
10290 2 17.28846 10.188858 54.657911
10291 2 16.353686 11.825947 27.152024
10292 2 16.353686 11.825947 39.933007
10293 2 16.353686 11.825947 52.713991
10294 2 14.881699 9.305891 27.789909
10295 2 14.881699 9.305891 40.570116
10296 2 14.881699 9.305891 53.3511
10297 2 14.889868 11.01814 26.430329
10298 2 14.889868 11.01814 39.211312
10299 2 14.889868 11.01814 51.992296
10300 2 15.234913 9.85664 23.408523
10301 2 15.234913 9.85664 36.189506
10302 2 15.234913 9.85664 48.97049
10303 2 15.648813 11.583416 23.402315
10304 2 15.648813 11.583416 36.182522
10305 2 15.648813 11.583416 48.963506
10306 2 16.615096 12.256062 21.300863
10307 2 16.615096 12.256062 34.081847
10308 2 16.615096 12.256062 46.86283
10309 2 15.881436 9.41263 21.282239
10310 2 15.881436 9.41263 34.062446
10311 2 15.881436 9.41263 46.84343
10312 2 16.790536 11.021298 20.00026
10313 2 16.790536 11.021298 32.780468
10314 2 16.790536 11.021298 45.561451
10315 2 24.725809 11.25625 28.716472
10316 2 24.725809 11.25625 41.497456
10317 2 24.725809 11.25625 54.278439
10318 2 24.17887 10.230543 30.079156
10319 2 24.17887 10.230543 42.86014
10320 2 24.17887 10.230543 55.641123
10321 2 21.205721 9.575581 27.95132
10322 2 21.205721 9.575581 40.731528
10323 2 21.205721 9.575581 53.512511
10324 2 21.737099 9.470737 29.688044
10325 2 21.737099 9.470737 42.469028
10326 2 21.737099 9.470737 55.250011
10327 2 23.18419 10.516655 27.270754
10328 2 23.18419 10.516655 40.051738
10329 2 23.18419 10.516655 52.831945
10330 2 24.636727 10.999824 20.84379
10331 2 24.636727 10.999824 33.624773
10332 2 24.636727 10.999824 46.405757
10333 2 21.099134 10.581709 22.669755
10334 2 21.099134 10.581709 35.450739
10335 2 21.099134 10.581709 48.231722
10336 2 24.753428 10.099172 22.372541
10337 2 24.753428 10.099172 35.153525
10338 2 24.753428 10.099172 47.934508
10339 2 22.327605 9.52758 23.292896
10340 2 22.327605 9.52758 36.07388
10341 2 22.327605 9.52758 48.854087
10342 2 22.343554 10.977086 20.728939
10343 2 22.343554 10.977086 33.509923
10344 2 22.343554 10.977086 46.290906
10345 6 19.239699 0.973916 31.317678
10346 6 19.239699 0.973916 44.098661
10347 6 19.239699 0.973916 56.878869
10348 6 19.531063 0.815387 25.020308
10349 6 19.531063 0.815387 37.801291
10350 6 19.531063 0.815387 50.582275
10351 6 25.858196 1.214553 31.590835
10352 6 25.858196 1.214553 44.371819
10353 6 25.858196 1.214553 57.152802
10354 6 25.672642 1.400242 24.837944
10355 6 25.672642 1.400242 37.618928
10356 6 25.672642 1.400242 50.399911
10357 6 13.270448 7.514694 25.23216
10358 6 13.270448 7.514694 38.013144
10359 6 13.270448 7.514694 50.794127
10360 6 12.98492 7.40227 31.638948
10361 6 12.98492 7.40227 44.419932
10362 6 12.98492 7.40227 57.200915
10363 6 19.718951 7.010051 25.178615
10364 6 19.718951 7.010051 37.959599
10365 6 19.718951 7.010051 50.740582
10366 6 19.622478 7.3189 31.562123
10367 6 19.622478 7.3189 44.343106
10368 6 19.622478 7.3189 57.12409
10369 3 15.994636 1.488665 31.4496
10370 3 15.994636 1.488665 44.229808
10371 3 15.994636 1.488665 57.010791
10372 3 19.012911 0.84065 28.388993
10373 3 19.012911 0.84065 41.169977
10374 3 19.012911 0.84065 53.95096
10375 3 19.488661 3.924719 25.023412
10376 3 19.488661 3.924719 37.804395
10377 3 19.488661 3.924719 50.585379
10378 3 15.990357 1.278976 25.031948
10379 3 15.990357 1.278976 37.812156
10380 3 15.990357 1.278976 50.593139
10381 3 19.215192 1.152026 21.872787
10382 3 19.215192 1.152026 34.652994
10383 3 19.215192 1.152026 47.433978
10384 3 25.6812 1.22908 27.942784
10385 3 25.6812 1.22908 40.722992
10386 3 25.6812 1.22908 53.503975
10387 3 19.681218 4.019458 31.453481
10388 3 19.681218 4.019458 44.234464
10389 3 19.681218 4.019458 57.014672
10390 3 22.72361 0.730753 31.101945
10391 3 22.72361 0.730753 43.882929
10392 3 22.72361 0.730753 56.663912
10393 3 25.319038 0.993496 21.799065
10394 3 25.319038 0.993496 34.580049
10395 3 25.319038 0.993496 47.360256
10396 3 25.56411 4.344097 25.13283
10397 3 25.56411 4.344097 37.913814
10398 3 25.56411 4.344097 50.694797
10399 3 25.823964 4.239884 32.040149
10400 3 25.823964 4.239884 44.821132
10401 3 25.823964 4.239884 57.60134
10402 3 22.591349 0.960021 24.920978
10403 3 22.591349 0.960021 37.701185
10404 3 22.591349 0.960021 50.482169
10405 3 16.294558 6.557199 25.951527
10406 3 16.294558 6.557199 38.732511
10407 3 16.294558 6.557199 51.513494
10408 3 13.085283 7.117422 28.488323
10409 3 13.085283 7.117422 41.269307
10410 3 13.085283 7.117422 54.049514
10411 3 19.34084 6.888785 28.545749
10412 3 19.34084 6.888785 41.326732
10413 3 19.34084 6.888785 54.10694
10414 3 13.373145 10.531182 31.879513
10415 3 13.373145 10.531182 44.659721
10416 3 13.373145 10.531182 57.440704
10417 3 16.215979 6.943102 31.680077
10418 3 16.215979 6.943102 44.461061
10419 3 16.215979 6.943102 57.242044
10420 3 19.358345 7.275951 22.093176
10421 3 19.358345 7.275951 34.874159
10422 3 19.358345 7.275951 47.655143
10423 3 13.434608 7.443324 22.078431
10424 3 13.434608 7.443324 34.858639
10425 3 13.434608 7.443324 47.639622
10426 3 19.526784 10.129489 25.381155
10427 3 19.526784 10.129489 38.162139
10428 3 19.526784 10.129489 50.943122
10429 3 19.601472 10.228017 31.015031
10430 3 19.601472 10.228017 43.796015
10431 3 19.601472 10.228017 56.576222
10432 3 23.025477 7.396586 24.650148
10433 3 23.025477 7.396586 37.431132
10434 3 23.025477 7.396586 50.212115
10435 3 25.670308 10.416863 25.102566
10436 3 25.670308 10.416863 37.883549
10437 3 25.670308 10.416863 50.664533
10438 3 22.674596 7.543747 31.704134
10439 3 22.674596 7.543747 44.484341
10440 3 22.674596 7.543747 57.265325
10441 1 29.074084 4.371887 28.679223
10442 1 29.074084 4.371887 41.460207
10443 1 29.074084 4.371887 54.24119
10444 1 29.308653 3.973352 22.174657
10445 1 29.308653 3.973352 34.955641
10446 1 29.308653 3.973352 47.736624
10447 1 35.338589 4.222199 28.280351
10448 1 35.338589 4.222199 41.061335
10449 1 35.338589 4.222199 53.841542
10450 1 35.720978 4.072512 21.736984
10451 1 35.720978 4.072512 34.517968
10452 1 35.720978 4.072512 47.298175
10453 1 28.63879 9.994328 27.858198
10454 1 28.63879 9.994328 40.639182
10455 1 28.63879 9.994328 53.419389
10456 1 28.99784 10.384652 21.754833
10457 1 28.99784 10.384652 34.53504
10458 1 28.99784 10.384652 47.316024
10459 1 36.004951 10.269702 28.304408
10460 1 36.004951 10.269702 41.085391
10461 1 36.004951 10.269702 53.865599
10462 1 35.793722 10.568446 21.646966
10463 1 35.793722 10.568446 34.42795
10464 1 35.793722 10.568446 47.208933
10465 4 28.132697 4.038406 27.802325
10466 4 28.132697 4.038406 40.583309
10467 4 28.132697 4.038406 53.363516
10468 4 30.247706 3.813559 28.749065
10469 4 30.247706 3.813559 41.530048
10470 4 30.247706 3.813559 54.311032
10471 4 29.226573 4.146408 20.880263
10472 4 29.226573 4.146408 33.661246
10473 4 29.226573 4.146408 46.44223
10474 4 28.426783 4.54747 23.025171
10475 4 28.426783 4.54747 35.806154
10476 4 28.426783 4.54747 48.586362
10477 4 36.195951 4.887898 29.00903
10478 4 36.195951 4.887898 41.789238
10479 4 36.195951 4.887898 54.570221
10480 4 35.633842 3.620923 27.14504
10481 4 35.633842 3.620923 39.925247
10482 4 35.633842 3.620923 52.706231
10483 4 36.135267 5.322434 21.586437
10484 4 36.135267 5.322434 34.366645
10485 4 36.135267 5.322434 47.147628
10486 4 34.502232 3.723872 21.465379
10487 4 34.502232 3.723872 34.245586
10488 4 34.502232 3.723872 47.02657
10489 4 29.432745 9.753691 28.838307
10490 4 29.432745 9.753691 41.618514
10491 4 29.432745 9.753691 54.399498
10492 4 28.652016 11.072457 27.117103
10493 4 28.652016 11.072457 39.898087
10494 4 28.652016 11.072457 52.678294
10495 4 28.639957 10.620868 22.99025
10496 4 28.639957 10.620868 35.770458
10497 4 28.639957 10.620868 48.551441
10498 4 29.457641 11.305515 20.911303
10499 4 29.457641 11.305515 33.692287
10500 4 29.457641 11.305515 46.47327
10501 4 34.894347 9.751796 28.651287
10502 4 34.894347 9.751796 41.43227
10503 4 34.894347 9.751796 54.213254
10504 4 37.048257 10.528024 29.082752
10505 4 37.048257 10.528024 41.862959
10506 4 37.048257 10.528024 54.643943
10507 4 37.090269 10.484444 21.657831
10508 4 37.090269 10.484444 34.438814
10509 4 37.090269 10.484444 47.219798
10510 4 34.959311 10.202122 22.605346
10511 4 34.959311 10.202122 35.38633
10512 4 34.959311 10.202122 48.167313
10513 2 28.333812 3.288073 27.129519
10514 2 28.333812 3.288073 39.910503
10515 2 28.333812 3.288073 52.69071
10516 2 30.403696 2.883222 28.319928
10517 2 30.403696 2.883222 41.100911
10518 2 30.403696 2.883222 53.881119
10519 2 28.904868 5.249169 29.268219
10520 2 28.904868 5.249169 42.048427
10521 2 28.904868 5.249169 54.82941
10522 2 27.299453 4.54368 27.831038
10523 2 27.299453 4.54368 40.612021
10524 2 27.299453 4.54368 53.393005
10525 2 31.044773 4.287885 29.305468
10526 2 31.044773 4.287885 42.086452
10527 2 31.044773 4.287885 54.867435
10528 2 28.418225 4.664314 20.516311
10529 2 28.418225 4.664314 33.297295
10530 2 28.418225 4.664314 46.078278
10531 2 27.928081 5.290855 22.586722
10532 2 27.928081 5.290855 35.367705
10533 2 27.928081 5.290855 48.147913
10534 2 30.058262 3.409339 22.60457
10535 2 30.058262 3.409339 35.385554
10536 2 30.058262 3.409339 48.165761
10537 2 29.698823 3.533763 20.235393
10538 2 29.698823 3.533763 33.016377
10539 2 29.698823 3.533763 45.79736
10540 2 28.79867 4.79758 23.916813
10541 2 28.79867 4.79758 36.697021
10542 2 28.79867 4.79758 49.478004
10543 2 36.613351 3.739031 26.793504
10544 2 36.613351 3.739031 39.574488
10545 2 36.613351 3.739031 52.354695
10546 2 35.048003 2.911012 26.749272
10547 2 35.048003 2.911012 39.530255
10548 2 35.048003 2.911012 52.310463
10549 2 34.333016 4.118618 28.698624
10550 2 34.333016 4.118618 41.479607
10551 2 34.333016 4.118618 54.260591
10552 2 37.167681 4.964321 28.786314
10553 2 37.167681 4.964321 41.567297
10554 2 37.167681 4.964321 54.347505
10555 2 35.856741 5.276328 29.899896
10556 2 35.856741 5.276328 42.680104
10557 2 35.856741 5.276328 55.461088
10558 2 35.573935 6.132768 21.482451
10559 2 35.573935 6.132768 34.262658
10560 2 35.573935 6.132768 47.043642
10561 2 34.143182 2.871853 21.866579
10562 2 34.143182 2.871853 34.646786
10563 2 34.143182 2.871853 47.42777
10564 2 36.440634 3.2906 21.999278
10565 2 36.440634 3.2906 34.779485
10566 2 36.440634 3.2906 47.560469
10567 2 33.735896 4.351044 21.250422
10568 2 33.735896 4.351044 34.03063
10569 2 33.735896 4.351044 46.811613
10570 2 37.038143 5.537807 21.9403
10571 2 37.038143 5.537807 34.721284
10572 2 37.038143 5.537807 47.501491
10573 2 29.337439 8.84167 29.210794
10574 2 29.337439 8.84167 41.991002
10575 2 29.337439 8.84167 54.771985
10576 2 30.255486 10.188858 29.095944
10577 2 30.255486 10.188858 41.876927
10578 2 30.255486 10.188858 54.657911
10579 2 29.320712 11.825947 27.152024
10580 2 29.320712 11.825947 39.933007
10581 2 29.320712 11.825947 52.713991
10582 2 27.848336 9.305891 27.789909
10583 2 27.848336 9.305891 40.570116
10584 2 27.848336 9.305891 53.3511
10585 2 27.856505 11.01814 26.430329
10586 2 27.856505 11.01814 39.211312
10587 2 27.856505 11.01814 51.992296
10588 2 28.20155 9.85664 23.408523
10589 2 28.20155 9.85664 36.189506
10590 2 28.20155 9.85664 48.97049
10591 2 28.61545 11.583416 23.402315
10592 2 28.61545 11.583416 36.182522
10593 2 28.61545 11.583416 48.963506
10594 2 29.581733 12.256062 21.300863
10595 2 29.581733 12.256062 34.081847
10596 2 29.581733 12.256062 46.86283
10597 2 28.848073 9.41263 21.282239
10598 2 28.848073 9.41263 34.062446
10599 2 28.848073 9.41263 46.84343
10600 2 29.757173 11.021298 20.00026
10601 2 29.757173 11.021298 32.780468
10602 2 29.757173 11.021298 45.561451
10603 2 37.692446 11.25625 28.716472
10604 2 37.692446 11.25625 41.497456
10605 2 37.692446 11.25625 54.278439
10606 2 37.145507 10.230543 30.079156
10607 2 37.145507 10.230543 42.86014
10608 2 37.145507 10.230543 55.641123
10609 2 34.172747 9.575581 27.95132
10610 2 34.172747 9.575581 40.731528
10611 2 34.172747 9.575581 53.512511
10612 2 34.703736 9.470737 29.688044
10613 2 34.703736 9.470737 42.469028
10614 2 34.703736 9.470737 55.250011
10615 2 36.150827 10.516655 27.270754
10616 2 36.150827 10.516655 40.051738
10617 2 36.150827 10.516655 52.831945
10618 2 37.603364 10.999824 20.84379
10619 2 37.603364 10.999824 33.624773
10620 2 37.603364 10.999824 46.405757
10621 2 34.065771 10.581709 22.669755
10622 2 34.065771 10.581709 35.450739
10623 2 34.065771 10.581709 48.231722
10624 2 37.720065 10.099172 22.372541
10625 2 37.720065 10.099172 35.153525
10626 2 37.720065 10.099172 47.934508
10627 2 35.294242 9.52758 23.292896
10628 2 35.294242 9.52758 36.07388
10629 2 35.294242 9.52758 48.854087
10630 2 35.310191 10.977086 20.728939
10631 2 35.310191 10.977086 33.509923
10632 2 35.310191 10.977086 46.290906
10633 6 32.206336 0.973916 31.317678
10634 6 32.206336 0.973916 44.098661
10635 6 32.206336 0.973916 56.878869
10636 6 32.4977 0.815387 25.020308
10637 6 32.4977 0.815387 37.801291
10638 6 32.4977 0.815387 50.582275
10639 6 38.824833 1.214553 31.590835
10640 6 38.824833 1.214553 44.371819
10641 6 38.824833 1.214553 57.152802
10642 6 38.639279 1.400242 24.837944
10643 6 38.639279 1.400242 37.618928
10644 6 38.639279 1.400242 50.399911
10645 6 26.237085 7.514694 25.23216
10646 6 26.237085 7.514694 38.013144
10647 6 26.237085 7.514694 50.794127
10648 6 25.951946 7.40227 31.638948
10649 6 25.951946 7.40227 44.419932
10650 6 25.951946 7.40227 57.200915
10651 6 32.685977 7.010051 25.178615
10652 6 32.685977 7.010051 37.959599
10653 6 32.685977 7.010051 50.740582
10654 6 32.589115 7.3189 31.562123
10655 6 32.589115 7.3189 44.343106
10656 6 32.589115 7.3189 57.12409
10657 3 28.961273 1.488665 31.4496
10658 3 28.961273 1.488665 44.229808
10659 3 28.961273 1.488665 57.010791
10660 3 31.979548 0.84065 28.388993
10661 3 31.979548 0.84065 41.169977
10662 3 31.979548 0.84065 53.95096
10663 3 32.455298 3.924719 25.023412
10664 3 32.455298 3.924719 37.804395
10665 3 32.455298 3.924719 50.585379
10666 3 28.956994 1.278976 25.031948
10667 3 28.956994 1.278976 37.812156
10668 3 28.956994 1.278976 50.593139
10669 3 32.181829 1.152026 21.872787
10670 3 32.181829 1.152026 34.652994
10671 3 32.181829 1.152026 47.433978
10672 3 38.648226 1.22908 27.942784
10673 3 38.648226 1.22908 40.722992
10674 3 38.648226 1.22908 53.503975
10675 3 32.647855 4.019458 31.453481
10676 3 32.647855 4.019458 44.234464
10677 3 32.647855 4.019458 57.014672
10678 3 35.690247 0.730753 31.101945
10679 3 35.690247 0.730753 43.882929
10680 3 35.690247 0.730753 56.663912
10681 3 38.285675 0.993496 21.799065
10682 3 38.285675 0.993496 34.580049
10683 3 38.285675 0.993496 47.360256
10684 3 38.530747 4.344097 25.13283
10685 3 38.530747 4.344097 37.913814
10686 3 38.530747 4.344097 50.694797
10687 3 38.790601 4.239884 32.040149
10688 3 38.790601 4.239884 44.821132
10689 3 38.790601 4.239884 57.60134
10690 3 35.557986 0.960021 24.920978
10691 3 35.557986 0.960021 37.701185
10692 3 35.557986 0.960021 50.482169
10693 3 29.261195 6.557199 25.951527
10694 3 29.261195 6.557199 38.732511
10695 3 29.261195 6.557199 51.513494
10696 3 26.05192 7.117422 28.488323
10697 3 26.05192 7.117422 41.269307
10698 3 26.05192 7.117422 54.049514
10699 3 32.307477 6.888785 28.545749
10700 3 32.307477 6.888785 41.326732
10701 3 32.307477 6.888785 54.10694
10702 3 26.339782 10.531182 31.879513
10703 3 26.339782 10.531182 44.659721
10704 3 26.339782 10.531182 57.440704
10705 3 29.182616 6.943102 31.680077
10706 3 29.182616 6.943102 44.461061
10707 3 29.182616 6.943102 57.242044
10708 3 32.325371 7.275951 22.093176
10709 3 32.325371 7.275951 34.874159
10710 3 32.325371 7.275951 47.655143
10711 3 26.401245 7.443324 22.078431
10712 3 26.401245 7.443324 34.858639
10713 3 26.401245 7.443324 47.639622
10714 3 32.493421 10.129489 25.381155
10715 3 32.493421 10.129489 38.162139
10716 3 32.493421 10.129489 50.943122
10717 3 32.568109 10.228017 31.015031
10718 3 32.568109 10.228017 43.796015
10719 3 32.568109 10.228017 56.576222
10720 3 35.992503 7.396586 24.650148
10721 3 35.992503 7.396586 37.431132
10722 3 35.992503 7.396586 50.212115
10723 3 38.636945 10.416863 25.102566
10724 3 38.636945 10.416863 37.883549
10725 3 38.636945 10.416863 50.664533
10726 3 35.641233 7.543747 31.704134
10727 3 35.641233 7.543747 44.484341
10728 3 35.641233 7.543747 57.265325
10729 1 3.140421 17.003747 28.679223
10730 1 3.140421 17.003747 41.460207
10731 1 3.140421 17.003747 54.24119
10732 1 3.375379 16.605212 22.174657
10733 1 3.375379 16.605212 34.955641
10734 1 3.375379 16.605212 47.736624
10735 1 9.404926 16.854059 28.280351
10736 1 9.404926 16.854059 41.061335
10737 1 9.404926 16.854059 53.841542
10738 1 9.787315 16.704372 21.736984
10739 1 9.787315 16.704372 34.517968
10740 1 9.787315 16.704372 47.298175
10741 1 2.705127 22.626188 27.858198
10742 1 2.705127 22.626188 40.639182
10743 1 2.705127 22.626188 53.419389
10744 1 3.064177 23.016512 21.754833
10745 1 3.064177 23.016512 34.53504
10746 1 3.064177 23.016512 47.316024
10747 1 10.071288 22.901562 28.304408
10748 1 10.071288 22.901562 41.085391
10749 1 10.071288 22.901562 53.865599
10750 1 9.860448 23.200306 21.646966
10751 1 9.860448 23.200306 34.42795
10752 1 9.860448 23.200306 47.208933
10753 4 2.199034 16.670266 27.802325
10754 4 2.199034 16.670266 40.583309
10755 4 2.199034 16.670266 53.363516
10756 4 4.314432 16.445419 28.749065
10757 4 4.314432 16.445419 41.530048
10758 4 4.314432 16.445419 54.311032
10759 4 3.293299 16.778268 20.880263
10760 4 3.293299 16.778268 33.661246
10761 4 3.293299 16.778268 46.44223
10762 4 2.493509 17.17933 23.025171
10763 4 2.493509 17.17933 35.806154
10764 4 2.493509 17.17933 48.586362
10765 4 10.262677 17.519758 29.00903
10766 4 10.262677 17.519758 41.789238
10767 4 10.262677 17.519758 54.570221
10768 4 9.700568 16.252783 27.14504
10769 4 9.700568 16.252783 39.925247
10770 4 9.700568 16.252783 52.706231
10771 4 10.201993 17.954294 21.586437
10772 4 10.201993 17.954294 34.366645
10773 4 10.201993 17.954294 47.147628
10774 4 8.568569 16.355732 21.465379
10775 4 8.568569 16.355732 34.245586
10776 4 8.568569 16.355732 47.02657
10777 4 3.499471 22.385551 28.838307
10778 4 3.499471 22.385551 41.618514
10779 4 3.499471 22.385551 54.399498
10780 4 2.718353 23.704317 27.117103
10781 4 2.718353 23.704317 39.898087
10782 4 2.718353 23.704317 52.678294
10783 4 2.706683 23.252728 22.99025
10784 4 2.706683 23.252728 35.770458
10785 4 2.706683 23.252728 48.551441
10786 4 3.523978 23.937375 20.911303
10787 4 3.523978 23.937375 33.692287
10788 4 3.523978 23.937375 46.47327
10789 4 8.960684 22.383656 28.651287
10790 4 8.960684 22.383656 41.43227
10791 4 8.960684 22.383656 54.213254
10792 4 11.114594 23.159884 29.082752
10793 4 11.114594 23.159884 41.862959
10794 4 11.114594 23.159884 54.643943
10795 4 11.156606 23.116304 21.657831
10796 4 11.156606 23.116304 34.438814
10797 4 11.156606 23.116304 47.219798
10798 4 9.025648 22.833982 22.605346
10799 4 9.025648 22.833982 35.38633
10800 4 9.025648 22.833982 48.167313
10801 2 2.400538 15.919933 27.129519
10802 2 2.400538 15.919933 39.910503
10803 2 2.400538 15.919933 52.69071
10804 2 4.470033 15.515082 28.319928
10805 2 4.470033 15.515082 41.100911
10806 2 4.470033 15.515082 53.881119
10807 2 2.971205 17.881029 29.268219
10808 2 2.971205 17.881029 42.048427
10809 2 2.971205 17.881029 54.82941
10810 2 1.366179 17.17554 27.831038
10811 2 1.366179 17.17554 40.612021
10812 2 1.366179 17.17554 53.393005
10813 2 5.111499 16.919745 29.305468
10814 2 5.111499 16.919745 42.086452
10815 2 5.111499 16.919745 54.867435
10816 2 2.484951 17.296174 20.516311
10817 2 2.484951 17.296174 33.297295
10818 2 2.484951 17.296174 46.078278
10819 2 1.994807 17.922715 22.586722
10820 2 1.994807 17.922715 35.367705
10821 2 1.994807 17.922715 48.147913
10822 2 4.124599 16.041199 22.60457
10823 2 4.124599 16.041199 35.385554
10824 2 4.124599 16.041199 48.165761
10825 2 3.76516 16.165623 20.235393
10826 2 3.76516 16.165623 33.016377
10827 2 3.76516 16.165623 45.79736
10828 2 2.865007 17.42944 23.916813
10829 2 2.865007 17.42944 36.697021
10830 2 2.865007 17.42944 49.478004
10831 2 10.679688 16.370891 26.793504
10832 2 10.679688 16.370891 39.574488
10833 2 10.679688 16.370891 52.354695
10834 2 9.11434 15.542872 26.749272
10835 2 9.11434 15.542872 39.530255
10836 2 9.11434 15.542872 52.310463
10837 2 8.399353 16.750478 28.698624
10838 2 8.399353 16.750478 41.479607
10839 2 8.399353 16.750478 54.260591
10840 2 11.234018 17.596181 28.786314
10841 2 11.234018 17.596181 41.567297
10842 2 11.234018 17.596181 54.347505
10843 2 9.923078 17.908188 29.899896
10844 2 9.923078 17.908188 42.680104
10845 2 9.923078 17.908188 55.461088
10846 2 9.640272 18.764628 21.482451
10847 2 9.640272 18.764628 34.262658
10848 2 9.640272 18.764628 47.043642
10849 2 8.209908 15.503713 21.866579
10850 2 8.209908 15.503713 34.646786
10851 2 8.209908 15.503713 47.42777
10852 2 10.506971 15.92246 21.999278
10853 2 10.506971 15.92246 34.779485
10854 2 10.506971 15.92246 47.560469
10855 2 7.802233 16.982904 21.250422
10856 2 7.802233 16.982904 34.03063
10857 2 7.802233 16.982904 46.811613
10858 2 11.104869 18.169667 21.9403
10859 2 11.104869 18.169667 34.721284
10860 2 11.104869 18.169667 47.501491
10861 2 3.404165 21.47353 29.210794
10862 2 3.404165 21.47353 41.991002
10863 2 3.404165 21.47353 54.771985
10864 2 4.321823 22.820718 29.095944
10865 2 4.321823 22.820718 41.876927
10866 2 4.321823 22.820718 54.657911
10867 2 3.387049 24.457807 27.152024
10868 2 3.387049 24.457807 39.933007
10869 2 3.387049 24.457807 52.713991
10870 2 1.914673 21.937751 27.789909
10871 2 1.914673 21.937751 40.570116
10872 2 1.914673 21.937751 53.3511
10873 2 1.923231 23.65 26.430329
10874 2 1.923231 23.65 39.211312
10875 2 1.923231 23.65 51.992296
10876 2 2.268276 22.4885 23.408523
10877 2 2.268276 22.4885 36.189506
10878 2 2.268276 22.4885 48.97049
10879 2 2.681787 24.215276 23.402315
10880 2 2.681787 24.215276 36.182522
10881 2 2.681787 24.215276 48.963506
10882 2 3.648459 24.887922 21.300863
10883 2 3.648459 24.887922 34.081847
10884 2 3.648459 24.887922 46.86283
10885 2 2.91441 22.04449 21.282239
10886 2 2.91441 22.04449 34.062446
10887 2 2.91441 22.04449 46.84343
10888 2 3.82351 23.653158 20.00026
10889 2 3.82351 23.653158 32.780468
10890 2 3.82351 23.653158 45.561451
10891 2 11.758783 23.88811 28.716472
10892 2 11.758783 23.88811 41.497456
10893 2 11.758783 23.88811 54.278439
10894 2 11.211844 22.862403 30.079156
10895 2 11.211844 22.862403 42.86014
10896 2 11.211844 22.862403 55.641123
10897 2 8.239084 22.207441 27.95132
10898 2 8.239084 22.207441 40.731528
10899 2 8.239084 22.207441 53.512511
10900 2 8.770073 22.102597 29.688044
10901 2 8.770073 22.102597 42.469028
10902 2 8.770073 22.102597 55.250011
10903 2 10.217553 23.148515 27.270754
10904 2 10.217553 23.148515 40.051738
10905 2 10.217553 23.148515 52.831945
10906 2 11.669701 23.631684 20.84379
10907 2 11.669701 23.631684 33.624773
10908 2 11.669701 23.631684 46.405757
10909 2 8.132108 23.213569 22.669755
10910 2 8.132108 23.213569 35.450739
10911 2 8.132108 23.213569 48.231722
10912 2 11.786402 22.731032 22.372541
10913 2 11.786402 22.731032 35.153525
10914 2 11.786402 22.731032 47.934508
10915 2 9.360579 22.15944 23.292896
10916 2 9.360579 22.15944 36.07388
10917 2 9.360579 22.15944 48.854087
10918 2 9.376917 23.608946 20.728939
10919 2 9.376917 23.608946 33.509923
10920 2 9.376917 23.608946 46.290906
10921 6 6.273062 13.605776 31.317678
10922 6 6.273062 13.605776 44.098661
10923 6 6.273062 13.605776 56.878869
10924 6 6.564037 13.447247 25.020308
10925 6 6.564037 13.447247 37.801291
10926 6 6.564037 13.447247 50.582275
10927 6 12.891559 13.846413 31.590835
10928 6 12.891559 13.846413 44.371819
10929 6 12.891559 13.846413 57.152802
10930 6 12.705616 14.032102 24.837944
10931 6 12.705616 14.032102 37.618928
10932 6 12.705616 14.032102 50.399911
10933 6 0.303811 20.146554 25.23216
10934 6 0.303811 20.146554 38.013144
10935 6 0.303811 20.146554 50.794127
10936 6 0.018283 20.03413 31.638948
10937 6 0.018283 20.03413 44.419932
10938 6 0.018283 20.03413 57.200915
10939 6 6.752314 19.641911 25.178615
10940 6 6.752314 19.641911 37.959599
10941 6 6.752314 19.641911 50.740582
10942 6 6.655452 19.95076 31.562123
10943 6 6.655452 19.95076 44.343106
10944 6 6.655452 19.95076 57.12409
10945 3 3.027999 14.120525 31.4496
10946 3 3.027999 14.120525 44.229808
10947 3 3.027999 14.120525 57.010791
10948 3 6.046274 13.47251 28.388993
10949 3 6.046274 13.47251 41.169977
10950 3 6.046274 13.47251 53.95096
10951 3 6.522024 16.556579 25.023412
10952 3 6.522024 16.556579 37.804395
10953 3 6.522024 16.556579 50.585379
10954 3 3.02372 13.910836 25.031948
10955 3 3.02372 13.910836 37.812156
10956 3 3.02372 13.910836 50.593139
10957 3 6.248166 13.783886 21.872787
10958 3 6.248166 13.783886 34.652994
10959 3 6.248166 13.783886 47.433978
10960 3 12.714563 13.86094 27.942784
10961 3 12.714563 13.86094 40.722992
10962 3 12.714563 13.86094 53.503975
10963 3 6.714581 16.651318 31.453481
10964 3 6.714581 16.651318 44.234464
10965 3 6.714581 16.651318 57.014672
10966 3 9.756584 13.362613 31.101945
10967 3 9.756584 13.362613 43.882929
10968 3 9.756584 13.362613 56.663912
10969 3 12.352401 13.625356 21.799065
10970 3 12.352401 13.625356 34.580049
10971 3 12.352401 13.625356 47.360256
10972 3 12.597473 16.975957 25.13283
10973 3 12.597473 16.975957 37.913814
10974 3 12.597473 16.975957 50.694797
10975 3 12.856938 16.871744 32.040149
10976 3 12.856938 16.871744 44.821132
10977 3 12.856938 16.871744 57.60134
10978 3 9.624712 13.591881 24.920978
10979 3 9.624712 13.591881 37.701185
10980 3 9.624712 13.591881 50.482169
10981 3 3.327921 19.189059 25.951527
10982 3 3.327921 19.189059 38.732511
10983 3 3.327921 19.189059 51.513494
10984 3 0.118646 19.749282 28.488323
10985 3 0.118646 19.749282 41.269307
10986 3 0.118646 19.749282 54.049514
10987 3 6.374203 19.520645 28.545749
10988 3 6.374203 19.520645 41.326732
10989 3 6.374203 19.520645 54.10694
10990 3 0.406508 23.163042 31.879513
10991 3 0.406508 23.163042 44.659721
10992 3 0.406508 23.163042 57.440704
10993 3 3.249342 19.574962 31.680077
10994 3 3.249342 19.574962 44.461061
10995 3 3.249342 19.574962 57.242044
10996 3 6.391708 19.907811 22.093176
10997 3 6.391708 19.907811 34.874159
10998 3 6.391708 19.907811 47.655143
10999 3 0.467582 20.075184 22.078431
11000 3 0.467582 20.075184 34.858639
11001 3 0.467582 20.075184 47.639622
11002 3 6.559758 22.761349 25.381155
11003 3 6.559758 22.761349 38.162139
11004 3 6.559758 22.761349 50.943122
11005 3 6.634446 22.859877 31.015031
11006 3 6.634446 22.859877 43.796015
11007 3 6.634446 22.859877 56.576222
11008 3 10.05884 20.028446 24.650148
11009 3 10.05884 20.028446 37.431132
11010 3 10.05884 20.028446 50.212115
11011 3 12.703282 23.048723 25.102566
11012 3 12.703282 23.048723 37.883549
11013 3 12.703282 23.048723 50.664533
11014 3 9.707959 20.175607 31.704134
11015 3 9.707959 20.175607 44.484341
11016 3 9.707959 20.175607 57.265325
11017 1 16.107058 17.003747 28.679223
11018 1 16.107058 17.003747 41.460207
11019 1 16.107058 17.003747 54.24119
11020 1 16.342016 16.605212 22.174657
11021 1 16.342016 16.605212 34.955641
11022 1 16.342016 16.605212 47.736624
11023 1 22.371952 16.854059 28.280351
11024 1 22.371952 16.854059 41.061335
11025 1 22.371952 16.854059 53.841542
11026 1 22.753952 16.704372 21.736984
11027 1 22.753952 16.704372 34.517968
11028 1 22.753952 16.704372 47.298175
11029 1 15.671764 22.626188 27.858198
11030 1 15.671764 22.626188 40.639182
11031 1 15.671764 22.626188 53.419389
11032 1 16.030814 23.016512 21.754833
11033 1 16.030814 23.016512 34.53504
11034 1 16.030814 23.016512 47.316024
11035 1 23.038314 22.901562 28.304408
11036 1 23.038314 22.901562 41.085391
11037 1 23.038314 22.901562 53.865599
11038 1 22.827085 23.200306 21.646966
11039 1 22.827085 23.200306 34.42795
11040 1 22.827085 23.200306 47.208933
11041 4 15.165671 16.670266 27.802325
11042 4 15.165671 16.670266 40.583309
11043 4 15.165671 16.670266 53.363516
11044 4 17.281069 16.445419 28.749065
11045 4 17.281069 16.445419 41.530048
11046 4 17.281069 16.445419 54.311032
11047 4 16.259936 16.778268 20.880263
11048 4 16.259936 16.778268 33.661246
11049 4 16.259936 16.778268 46.44223
11050 4 15.460146 17.17933 23.025171
11051 4 15.460146 17.17933 35.806154
11052 4 15.460146 17.17933 48.586362
11053 4 23.229314 17.519758 29.00903
11054 4 23.229314 17.519758 41.789238
11055 4 23.229314 17.519758 54.570221
11056 4 22.667205 16.252783 27.14504
11057 4 22.667205 16.252783 39.925247
11058 4 22.667205 16.252783 52.706231
11059 4 23.16863 17.954294 21.586437
11060 4 23.16863 17.954294 34.366645
11061 4 23.16863 17.954294 47.147628
11062 4 21.535595 16.355732 21.465379
11063 4 21.535595 16.355732 34.245586
11064 4 21.535595 16.355732 47.02657
11065 4 16.466108 22.385551 28.838307
11066 4 16.466108 22.385551 41.618514
11067 4 16.466108 22.385551 54.399498
11068 4 15.685379 23.704317 27.117103
11069 4 15.685379 23.704317 39.898087
11070 4 15.685379 23.704317 52.678294
11071 4 15.67332 23.252728 22.99025
11072 4 15.67332 23.252728 35.770458
11073 4 15.67332 23.252728 48.551441
11074 4 16.491004 23.937375 20.911303
11075 4 16.491004 23.937375 33.692287
11076 4 16.491004 23.937375 46.47327
11077 4 21.92771 22.383656 28.651287
11078 4 21.92771 22.383656 41.43227
11079 4 21.92771 22.383656 54.213254
11080 4 24.081231 23.159884 29.082752
11081 4 24.081231 23.159884 41.862959
11082 4 24.081231 23.159884 54.643943
11083 4 24.123632 23.116304 21.657831
11084 4 24.123632 23.116304 34.438814
11085 4 24.123632 23.116304 47.219798
11086 4 21.992285 22.833982 22.605346
11087 4 21.992285 22.833982 35.38633
11088 4 21.992285 22.833982 48.167313
11089 2 15.367175 15.919933 27.129519
11090 2 15.367175 15.919933 39.910503
11091 2 15.367175 15.919933 52.69071
11092 2 17.43667 15.515082 28.319928
11093 2 17.43667 15.515082 41.100911
11094 2 17.43667 15.515082 53.881119
11095 2 15.937842 17.881029 29.268219
11096 2 15.937842 17.881029 42.048427
11097 2 15.937842 17.881029 54.82941
11098 2 14.332816 17.17554 27.831038
11099 2 14.332816 17.17554 40.612021
11100 2 14.332816 17.17554 53.393005
11101 2 18.078136 16.919745 29.305468
11102 2 18.078136 16.919745 42.086452
11103 2 18.078136 16.919745 54.867435
11104 2 15.451588 17.296174 20.516311
11105 2 15.451588 17.296174 33.297295
11106 2 15.451588 17.296174 46.078278
11107 2 14.961444 17.922715 22.586722
11108 2 14.961444 17.922715 35.367705
11109 2 14.961444 17.922715 48.147913
11110 2 17.091625 16.041199 22.60457
11111 2 17.091625 16.041199 35.385554
11112 2 17.091625 16.041199 48.165761
11113 2 16.731797 16.165623 20.235393
11114 2 16.731797 16.165623 33.016377
11115 2 16.731797 16.165623 45.79736
11116 2 15.832033 17.42944 23.916813
11117 2 15.832033 17.42944 36.697021
11118 2 15.832033 17.42944 49.478004
11119 2 23.646714 16.370891 26.793504
11120 2 23.646714 16.370891 39.574488
11121 2 23.646714 16.370891 52.354695
11122 2 22.081366 15.542872 26.749272
11123 2 22.081366 15.542872 39.530255
11124 2 22.081366 15.542872 52.310463
11125 2 21.36599 16.750478 28.698624
11126 2 21.36599 16.750478 41.479607
11127 2 21.36599 16.750478 54.260591
11128 2 24.200655 17.596181 28.786314
11129 2 24.200655 17.596181 41.567297
11130 2 24.200655 17.596181 54.347505
11131 2 22.890104 17.908188 29.899896
11132 2 22.890104 17.908188 42.680104
11133 2 22.890104 17.908188 55.461088
11134 2 22.607298 18.764628 21.482451
11135 2 22.607298 18.764628 34.262658
11136 2 22.607298 18.764628 47.043642
11137 2 21.176545 15.503713 21.866579
11138 2 21.176545 15.503713 34.646786
11139 2 21.176545 15.503713 47.42777
11140 2 23.473997 15.92246 21.999278
11141 2 23.473997 15.92246 34.779485
11142 2 23.473997 15.92246 47.560469
11143 2 20.769259 16.982904 21.250422
11144 2 20.769259 16.982904 34.03063
11145 2 20.769259 16.982904 46.811613
11146 2 24.071506 18.169667 21.9403
11147 2 24.071506 18.169667 34.721284
11148 2 24.071506 18.169667 47.501491
11149 2 16.370802 21.47353 29.210794
11150 2 16.370802 21.47353 41.991002
11151 2 16.370802 21.47353 54.771985
11152 2 17.28846 22.820718 29.095944
11153 2 17.28846 22.820718 41.876927
11154 2 17.28846 22.820718 54.657911
11155 2 16.353686 24.457807 27.152024
11156 2 16.353686 24.457807 39.933007
11157 2 16.353686 24.457807 52.713991
11158 2 14.881699 21.937751 27.789909
11159 2 14.881699 21.937751 40.570116
11160 2 14.881699 21.937751 53.3511
11161 2 14.889868 23.65 26.430329
11162 2 14.889868 23.65 39.211312
11163 2 14.889868 23.65 51.992296
11164 2 15.234913 22.4885 23.408523
11165 2 15.234913 22.4885 36.189506
11166 2 15.234913 22.4885 48.97049
11167 2 15.648813 24.215276 23.402315
11168 2 15.648813 24.215276 36.182522
11169 2 15.648813 24.215276 48.963506
11170 2 16.615096 24.887922 21.300863
11171 2 16.615096 24.887922 34.081847
11172 2 16.615096 24.887922 46.86283
11173 2 15.881436 22.04449 21.282239
11174 2 15.881436 22.04449 34.062446
11175 2 15.881436 22.04449 46.84343
11176 2 16.790536 23.653158 20.00026
11177 2 16.790536 23.653158 32.780468
11178 2 16.790536 23.653158 45.561451
11179 2 24.725809 23.88811 28.716472
11180 2 24.725809 23.88811 41.497456
11181 2 24.725809 23.88811 54.278439
11182 2 24.17887 22.862403 30.079156
11183 2 24.17887 22.862403 42.86014
11184 2 24.17887 22.862403 55.641123
11185 2 21.205721 22.207441 27.95132
11186 2 21.205721 22.207441 40.731528
11187 2 21.205721 22.207441 53.512511
11188 2 21.737099 22.102597 29.688044
11189 2 21.737099 22.102597 42.469028
11190 2 21.737099 22.102597 55.250011
11191 2 23.18419 23.148515 27.270754
11192 2 23.18419 23.148515 40.051738
11193 2 23.18419 23.148515 52.831945
11194 2 24.636727 23.631684 20.84379
11195 2 24.636727 23.631684 33.624773
11196 2 24.636727 23.631684 46.405757
11197 2 21.099134 23.213569 22.669755
11198 2 21.099134 23.213569 35.450739
11199 2 21.099134 23.213569 48.231722
11200 2 24.753428 22.731032 22.372541
11201 2 24.753428 22.731032 35.153525
11202 2 24.753428 22.731032 47.934508
11203 2 22.327605 22.15944 23.292896
11204 2 22.327605 22.15944 36.07388
11205 2 22.327605 22.15944 48.854087
11206 2 22.343554 23.608946 20.728939
11207 2 22.343554 23.608946 33.509923
11208 2 22.343554 23.608946 46.290906
11209 6 19.239699 13.605776 31.317678
11210 6 19.239699 13.605776 44.098661
11211 6 19.239699 13.605776 56.878869
11212 6 19.531063 13.447247 25.020308
11213 6 19.531063 13.447247 37.801291
11214 6 19.531063 13.447247 50.582275
11215 6 25.858196 13.846413 31.590835
11216 6 25.858196 13.846413 44.371819
11217 6 25.858196 13.846413 57.152802
11218 6 25.672642 14.032102 24.837944
11219 6 25.672642 14.032102 37.618928
11220 6 25.672642 14.032102 50.399911
11221 6 13.270448 20.146554 25.23216
11222 6 13.270448 20.146554 38.013144
11223 6 13.270448 20.146554 50.794127
11224 6 12.98492 20.03413 31.638948
11225 6 12.98492 20.03413 44.419932
11226 6 12.98492 20.03413 57.200915
11227 6 19.718951 19.641911 25.178615
11228 6 19.718951 19.641911 37.959599
11229 6 19.718951 19.641911 50.740582
11230 6 19.622478 19.95076 31.562123
11231 6 19.622478 19.95076 44.343106
11232 6 19.622478 19.95076 57.12409
11233 3 15.994636 14.120525 31.4496
11234 3 15.994636 14.120525 44.229808
11235 3 15.994636 14.120525 57.010791
11236 3 19.012911 13.47251 28.388993
11237 3 19.012911 13.47251 41.169977
11238 3 19.012911 13.47251 53.95096
11239 3 19.488661 16.556579 25.023412
11240 3 19.488661 16.556579 37.804395
11241 3 19.488661 16.556579 50.585379
11242 3 15.990357 13.910836 25.031948
11243 3 15.990357 13.910836 37.812156
11244 3 15.990357 13.910836 50.593139
11245 3 19.215192 13.783886 21.872787
11246 3 19.215192 13.783886 34.652994
11247 3 19.215192 13.783886 47.433978
11248 3 25.6812 13.86094 27.942784
11249 3 25.6812 13.86094 40.722992
11250 3 25.6812 13.86094 53.503975
11251 3 19.681218 16.651318 31.453481
11252 3 19.681218 16.651318 44.234464
11253 3 19.681218 16.651318 57.014672
11254 3 22.72361 13.362613 31.101945
11255 3 22.72361 13.362613 43.882929
11256 3 22.72361 13.362613 56.663912
11257 3 25.319038 13.625356 21.799065
11258 3 25.319038 13.625356 34.580049
11259 3 25.319038 13.625356 47.360256
11260 3 25.56411 16.975957 25.13283
11261 3 25.56411 16.975957 37.913814
11262 3 25.56411 16.975957 50.694797
11263 3 25.823964 16.871744 32.040149
11264 3 25.823964 16.871744 44.821132
11265 3 25.823964 16.871744 57.60134
11266 3 22.591349 13.591881 24.920978
11267 3 22.591349 13.591881 37.701185
11268 3 22.591349 13.591881 50.482169
11269 3 16.294558 19.189059 25.951527
11270 3 16.294558 19.189059 38.732511
11271 3 16.294558 19.189059 51.513494
11272 3 13.085283 19.749282 28.488323
11273 3 13.085283 19.749282 41.269307
11274 3 13.085283 19.749282 54.049514
11275 3 19.34084 19.520645 28.545749
11276 3 19.34084 19.520645 41.326732
11277 3 19.34084 19.520645 54.10694
11278 3 13.373145 23.163042 31.879513
11279 3 13.373145 23.163042 44.659721
11280 3 13.373145 23.163042 57.440704
11281 3 16.215979 19.574962 31.680077
11282 3 16.215979 19.574962 44.461061
11283 3 16.215979 19.574962 57.242044
11284 3 19.358345 19.907811 22.093176
11285 3 19.358345 19.907811 34.874159
11286 3 19.358345 19.907811 47.655143
11287 3 13.434608 20.075184 22.078431
11288 3 13.434608 20.075184 34.858639
11289 3 13.434608 20.075184 47.639622
11290 3 19.526784 22.761349 25.381155
11291 3 19.526784 22.761349 38.162139
11292 3 19.526784 22.761349 50.943122
11293 3 19.601472 22.859877 31.015031
11294 3 19.601472 22.859877 43.796015
11295 3 19.601472 22.859877 56.576222
11296 3 23.025477 20.028446 24.650148
11297 3 23.025477 20.028446 37.431132
11298 3 23.025477 20.028446 50.212115
11299 3 25.670308 23.048723 25.102566
11300 3 25.670308 23.048723 37.883549
11301 3 25.670308 23.048723 50.664533
11302 3 22.674596 20.175607 31.704134
11303 3 22.674596 20.175607 44.484341
11304 3 22.674596 20.175607 57.265325
11305 1 29.074084 17.003747 28.679223
11306 1 29.074084 17.003747 41.460207
11307 1 29.074084 17.003747 54.24119
11308 1 29.308653 16.605212 22.174657
11309 1 29.308653 16.605212 34.955641
11310 1 29.308653 16.605212 47.736624
11311 1 35.338589 16.854059 28.280351
11312 1 35.338589 16.854059 41.061335
11313 1 35.338589 16.854059 53.841542
11314 1 35.720978 16.704372 21.736984
11315 1 35.720978 16.704372 34.517968
11316 1 35.720978 16.704372 47.298175
11317 1 28.63879 22.626188 27.858198
11318 1 28.63879 22.626188 40.639182
11319 1 28.63879 22.626188 53.419389
11320 1 28.99784 23.016512 21.754833
11321 1 28.99784 23.016512 34.53504
11322 1 28.99784 23.016512 47.316024
11323 1 36.004951 22.901562 28.304408
11324 1 36.004951 22.901562 41.085391
11325 1 36.004951 22.901562 53.865599
11326 1 35.793722 23.200306 21.646966
11327 1 35.793722 23.200306 34.42795
11328 1 35.793722 23.200306 47.208933
11329 4 28.132697 16.670266 27.802325
11330 4 28.132697 16.670266 40.583309
11331 4 28.132697 16.670266 53.363516
11332 4 30.247706 16.445419 28.749065
11333 4 30.247706 16.445419 41.530048
11334 4 30.247706 16.445419 54.311032
11335 4 29.226573 16.778268 20.880263
11336 4 29.226573 16.778268 33.661246
11337 4 29.226573 16.778268 46.44223
11338 4 28.426783 17.17933 23.025171
11339 4 28.426783 17.17933 35.806154
11340 4 28.426783 17.17933 48.586362
11341 4 36.195951 17.519758 29.00903
11342 4 36.195951 17.519758 41.789238
11343 4 36.195951 17.519758 54.570221
11344 4 35.633842 16.252783 27.14504
11345 4 35.633842 16.252783 39.925247
11346 4 35.633842 16.252783 52.706231
11347 4 36.135267 17.954294 21.586437
11348 4 36.135267 17.954294 34.366645
11349 4 36.135267 17.954294 47.147628
11350 4 34.502232 16.355732 21.465379
11351 4 34.502232 16.355732 34.245586
11352 4 34.502232 16.355732 47.02657
11353 4 29.432745 22.385551 28.838307
11354 4 29.432745 22.385551 41.618514
11355 4 29.432745 22.385551 54.399498
11356 4 28.652016 23.704317 27.117103
11357 4 28.652016 23.704317 39.898087
11358 4 28.652016 23.704317 52.678294
11359 4 28.639957 23.252728 22.99025
11360 4 28.639957 23.252728 35.770458
11361 4 28.639957 23.252728 48.551441
11362 4 29.457641 23.937375 20.911303
11363 4 29.457641 23.937375 33.692287
11364 4 29.457641 23.937375 46.47327
11365 4 34.894347 22.383656 28.651287
11366 4 34.894347 22.383656 41.43227
11367 4 34.894347 22.383656 54.213254
11368 4 37.048257 23.159884 29.082752
11369 4 37.048257 23.159884 41.862959
11370 4 37.048257 23.159884 54.643943
11371 4 37.090269 23.116304 21.657831
11372 4 37.090269 23.116304 34.438814
11373 4 37.090269 23.116304 47.219798
11374 4 34.959311 22.833982 22.605346
11375 4 34.959311 22.833982 35.38633
11376 4 34.959311 22.833982 48.167313
11377 2 28.333812 15.919933 27.129519
11378 2 28.333812 15.919933 39.910503
11379 2 28.333812 15.919933 52.69071
11380 2 30.403696 15.515082 28.319928
11381 2 30.403696 15.515082 41.100911
11382 2 30.403696 15.515082 53.881119
11383 2 28.904868 17.881029 29.268219
11384 2 28.904868 17.881029 42.048427
11385 2 28.904868 17.881029 54.82941
11386 2 27.299453 17.17554 27.831038
11387 2 27.299453 17.17554 40.612021
11388 2 27.299453 17.17554 53.393005
11389 2 31.044773 16.919745 29.305468
11390 2 31.044773 16.919745 42.086452
11391 2 31.044773 16.919745 54.867435
11392 2 28.418225 17.296174 20.516311
11393 2 28.418225 17.296174 33.297295
11394 2 28.418225 17.296174 46.078278
11395 2 27.928081 17.922715 22.586722
11396 2 27.928081 17.922715 35.367705
11397 2 27.928081 17.922715 48.147913
11398 2 30.058262 16.041199 22.60457
11399 2 30.058262 16.041199 35.385554
11400 2 30.058262 16.041199 48.165761
11401 2 29.698823 16.165623 20.235393
11402 2 29.698823 16.165623 33.016377
11403 2 29.698823 16.165623 45.79736
11404 2 28.79867 17.42944 23.916813
11405 2 28.79867 17.42944 36.697021
11406 2 28.79867 17.42944 49.478004
11407 2 36.613351 16.370891 26.793504
11408 2 36.613351 16.370891 39.574488
11409 2 36.613351 16.370891 52.354695
11410 2 35.048003 15.542872 26.749272
11411 2 35.048003 15.542872 39.530255
11412 2 35.048003 15.542872 52.310463
11413 2 34.333016 16.750478 28.698624
11414 2 34.333016 16.750478 41.479607
11415 2 34.333016 16.750478 54.260591
11416 2 37.167681 17.596181 28.786314
11417 2 37.167681 17.596181 41.567297
11418 2 37.167681 17.596181 54.347505
11419 2 35.856741 17.908188 29.899896
11420 2 35.856741 17.908188 42.680104
11421 2 35.856741 17.908188 55.461088
11422 2 35.573935 18.764628 21.482451
11423 2 35.573935 18.764628 34.262658
11424 2 35.573935 18.764628 47.043642
11425 2 34.143182 15.503713 21.866579
11426 2 34.143182 15.503713 34.646786
11427 2 34.143182 15.503713 47.42777
11428 2 36.440634 15.92246 21.999278
11429 2 36.440634 15.92246 34.779485
11430 2 36.440634 15.92246 47.560469
11431 2 33.735896 16.982904 21.250422
11432 2 33.735896 16.982904 34.03063
11433 2 33.735896 16.982904 46.811613
11434 2 37.038143 18.169667 21.9403
11435 2 37.038143 18.169667 34.721284
11436 2 37.038143 18.169667 47.501491
11437 2 29.337439 21.47353 29.210794
11438 2 29.337439 21.47353 41.991002
11439 2 29.337439 21.47353 54.771985
11440 2 30.255486 22.820718 29.095944
11441 2 30.255486 22.820718 41.876927
11442 2 30.255486 22.820718 54.657911
11443 2 29.320712 24.457807 27.152024
11444 2 29.320712 24.457807 39.933007
11445 2 29.320712 24.457807 52.713991
11446 2 27.848336 21.937751 27.789909
11447 2 27.848336 21.937751 40.570116
11448 2 27.848336 21.937751 53.3511
11449 2 27.856505 23.65 26.430329
11450 2 27.856505 23.65 39.211312
11451 2 27.856505 23.65 51.992296
11452 2 28.20155 22.4885 23.408523
11453 2 28.20155 22.4885 36.189506
11454 2 28.20155 22.4885 48.97049
11455 2 28.61545 24.215276 23.402315
11456 2 28.61545 24.215276 36.182522
11457 2 28.61545 24.215276 48.963506
11458 2 29.581733 24.887922 21.300863
11459 2 29.581733 24.887922 34.081847
11460 2 29.581733 24.887922 46.86283
11461 2 28.848073 22.04449 21.282239
11462 2 28.848073 22.04449 34.062446
11463 2 28.848073 22.04449 46.84343
11464 2 29.757173 23.653158 20.00026
11465 2 29.757173 23.653158 32.780468
11466 2 29.757173 23.653158 45.561451
11467 2 37.692446 23.88811 28.716472
11468 2 37.692446 23.88811 41.497456
11469 2 37.692446 23.88811 54.278439
11470 2 37.145507 22.862403 30.079156
11471 2 37.145507 22.862403 42.86014
11472 2 37.145507 22.862403 55.641123
11473 2 34.172747 22.207441 27.95132
11474 2 34.172747 22.207441 40.731528
11475 2 34.172747 22.207441 53.512511
11476 2 34.703736 22.102597 29.688044
11477 2 34.703736 22.102597 42.469028
11478 2 34.703736 22.102597 55.250011
11479 2 36.150827 23.148515 27.270754
11480 2 36.150827 23.148515 40.051738
11481 2 36.150827 23.148515 52.831945
11482 2 37.603364 23.631684 20.84379
11483 2 37.603364 23.631684 33.624773
11484 2 37.603364 23.631684 46.405757
11485 2 34.065771 23.213569 22.669755
11486 2 34.065771 23.213569 35.450739
11487 2 34.065771 23.213569 48.231722
11488 2 37.720065 22.731032 22.372541
11489 2 37.720065 22.731032 35.153525
11490 2 37.720065 22.731032 47.934508
11491 2 35.294242 22.15944 23.292896
11492 2 35.294242 22.15944 36.07388
11493 2 35.294242 22.15944 48.854087
11494 2 35.310191 23.608946 20.728939
11495 2 35.310191 23.608946 33.509923
11496 2 35.310191 23.608946 46.290906
11497 6 32.206336 13.605776 31.317678
11498 6 32.206336 13.605776 44.098661
11499 6 32.206336 13.605776 56.878869
11500 6 32.4977 13.447247 25.020308
11501 6 32.4977 13.447247 37.801291
11502 6 32.4977 13.447247 50.582275
11503 6 38.824833 13.846413 31.590835
11504 6 38.824833 13.846413 44.371819
11505 6 38.824833 13.846413 57.152802
11506 6 38.639279 14.032102 24.837944
11507 6 38.639279 14.032102 37.618928
11508 6 38.639279 14.032102 50.399911
11509 6 26.237085 20.146554 25.23216
11510 6 26.237085 20.146554 38.013144
11511 6 26.237085 20.146554 50.794127
11512 6 25.951946 20.03413 31.638948
11513 6 25.951946 20.03413 44.419932
11514 6 25.951946 20.03413 57.200915
11515 6 32.685977 19.641911 25.178615
11516 6 32.685977 19.641911 37.959599
11517 6 32.685977 19.641911 50.740582
11518 6 32.589115 19.95076 31.562123
11519 6 32.589115 19.95076 44.343106
11520 6 32.589115 19.95076 57.12409
11521 3 28.961273 14.120525 31.4496
11522 3 28.961273 14.120525 44.229808
11523 3 28.961273 14.120525 57.010791
11524 3 31.979548 13.47251 28.388993
11525 3 31.979548 13.47251 41.169977
11526 3 31.979548 13.47251 53.95096
11527 3 32.455298 16.556579 25.023412
11528 3 32.455298 16.556579 37.804395
11529 3 32.455298 16.556579 50.585379
11530 3 28.956994 13.910836 25.031948
11531 3 28.956994 13.910836 37.812156
11532 3 28.956994 13.910836 50.593139
11533 3 32.181829 13.783886 21.872787
11534 3 32.181829 13.783886 34.652994
11535 3 32.181829 13.783886 47.433978
11536 3 38.648226 13.86094 27.942784
11537 3 38.648226 13.86094 40.722992
11538 3 38.648226 13.86094 53.503975
11539 3 32.647855 16.651318 31.453481
11540 3 32.647855 16.651318 44.234464
11541 3 32.647855 16.651318 57.014672
11542 3 35.690247 13.362613 31.101945
11543 3 35.690247 13.362613 43.882929
11544 3 35.690247 13.362613 56.663912
11545 3 38.285675 13.625356 21.799065
11546 3 38.285675 13.625356 34.580049
11547 3 38.285675 13.625356 47.360256
11548 3 38.530747 16.975957 25.13283
11549 3 38.530747 16.975957 37.913814
11550 3 38.530747 16.975957 50.694797
11551 3 38.790601 16.871744 32.040149
11552 3 38.790601 16.871744 44.821132
11553 3 38.790601 16.871744 57.60134
11554 3 35.557986 13.591881 24.920978
11555 3 35.557986 13.591881 37.701185
11556 3 35.557986 13.591881 50.482169
11557 3 29.261195 19.189059 25.951527
11558 3 29.261195 19.189059 38.732511
11559 3 29.261195 19.189059 51.513494
11560 3 26.05192 19.749282 28.488323
11561 3 26.05192 19.749282 41.269307
11562 3 26.05192 19.749282 54.049514
11563 3 32.307477 19.520645 28.545749
11564 3 32.307477 19.520645 41.326732
11565 3 32.307477 19.520645 54.10694
11566 3 26.339782 23.163042 31.879513
11567 3 26.339782 23.163042 44.659721
11568 3 26.339782 23.163042 57.440704
11569 3 29.182616 19.574962 31.680077
11570 3 29.182616 19.574962 44.461061
11571 3 29.182616 19.574962 57.242044
11572 3 32.325371 19.907811 22.093176
11573 3 32.325371 19.907811 34.874159
11574 3 32.325371 19.907811 47.655143
11575 3 26.401245 20.075184 22.078431
11576 3 26.401245 20.075184 34.858639
11577 3 26.401245 20.075184 47.639622
11578 3 32.493421 22.761349 25.381155
11579 3 32.493421 22.761349 38.162139
11580 3 32.493421 22.761349 50.943122
11581 3 32.568109 22.859877 31.015031
11582 3 32.568109 22.859877 43.796015
11583 3 32.568109 22.859877 56.576222
11584 3 35.992503 20.028446 24.650148
11585 3 35.992503 20.028446 37.431132
11586 3 35.992503 20.028446 50.212115
11587 3 38.636945 23.048723 25.102566
11588 3 38.636945 23.048723 37.883549
11589 3 38.636945 23.048723 50.664533
11590 3 35.641233 20.175607 31.704134
11591 3 35.641233 20.175607 44.484341
11592 3 35.641233 20.175607 57.265325
11593 1 3.140421 29.635607 28.679223
11594 1 3.140421 29.635607 41.460207
11595 1 3.140421 29.635607 54.24119
11596 1 3.375379 29.237072 22.174657
11597 1 3.375379 29.237072 34.955641
11598 1 3.375379 29.237072 47.736624
11599 1 9.404926 29.485919 28.280351
11600 1 9.404926 29.485919 41.061335
11601 1 9.404926 29.485919 53.841542
11602 1 9.787315 29.336232 21.736984
11603 1 9.787315 29.336232 34.517968
11604 1 9.787315 29.336232 47.298175
11605 1 2.705127 35.258048 27.858198
11606 1 2.705127 35.258048 40.639182
11607 1 2.705127 35.258048 53.419389
11608 1 3.064177 35.648372 21.754833
11609 1 3.064177 35.648372 34.53504
11610 1 3.064177 35.648372 47.316024
11611 1 10.071288 35.533422 28.304408
11612 1 10.071288 35.533422 41.085391
11613 1 10.071288 35.533422 53.865599
11614 1 9.860448 35.832166 21.646966
11615 1 9.860448 35.832166 34.42795
11616 1 9.860448 35.832166 47.208933
11617 4 2.199034 29.302126 27.802325
11618 4 2.199034 29.302126 40.583309
11619 4 2.199034 29.302126 53.363516
11620 4 4.314432 29.077279 28.749065
11621 4 4.314432 29.077279 41.530048
11622 4 4.314432 29.077279 54.311032
11623 4 3.293299 29.410128 20.880263
11624 4 3.293299 29.410128 33.661246
11625 4 3.293299 29.410128 46.44223
11626 4 2.493509 29.81119 23.025171
11627 4 2.493509 29.81119 35.806154
11628 4 2.493509 29.81119 48.586362
11629 4 10.262677 30.151618 29.00903
11630 4 10.262677 30.151618 41.789238
11631 4 10.262677 30.151618 54.570221
11632 4 9.700568 28.884643 27.14504
11633 4 9.700568 28.884643 39.925247
11634 4 9.700568 28.884643 52.706231
11635 4 10.201993 30.586154 21.586437
11636 4 10.201993 30.586154 34.366645
11637 4 10.201993 30.586154 47.147628
11638 4 8.568569 28.987592 21.465379
11639 4 8.568569 28.987592 34.245586
11640 4 8.568569 28.987592 47.02657
11641 4 3.499471 35.017411 28.838307
11642 4 3.499471 35.017411 41.618514
11643 4 3.499471 35.017411 54.399498
11644 4 2.718353 36.336177 27.117103
11645 4 2.718353 36.336177 39.898087
11646 4 2.718353 36.336177 52.678294
11647 4 2.706683 35.884588 22.99025
11648 4 2.706683 35.884588 35.770458
11649 4 2.706683 35.884588 48.551441
11650 4 3.523978 36.569235 20.911303
11651 4 3.523978 36.569235 33.692287
11652 4 3.523978 36.569235 46.47327
11653 4 8.960684 35.015516 28.651287
11654 4 8.960684 35.015516 41.43227
11655 4 8.960684 35.015516 54.213254
11656 4 11.114594 35.791744 29.082752
11657 4 11.114594 35.791744 41.862959
11658 4 11.114594 35.791744 54.643943
11659 4 11.156606 35.748164 21.657831
11660 4 11.156606 35.748164 34.438814
11661 4 11.156606 35.748164 47.219798
11662 4 9.025648 35.465842 22.605346
11663 4 9.025648 35.465842 35.38633
11664 4 9.025648 35.465842 48.167313
11665 2 2.400538 28.551793 27.129519
11666 2 2.400538 28.551793 39.910503
11667 2 2.400538 28.551793 52.69071
11668 2 4.470033 28.146942 28.319928
11669 2 4.470033 28.146942 41.100911
11670 2 4.470033 28.146942 53.881119
11671 2 2.971205 30.512889 29.268219
11672 2 2.971205 30.512889 42.048427
11673 2 2.971205 30.512889 54.82941
11674 2 1.366179 29.8074 27.831038
11675 2 1.366179 29.8074 40.612021
11676 2 1.366179 29.8074 53.393005
11677 2 5.111499 29.551605 29.305468
11678 2 5.111499 29.551605 42.086452
11679 2 5.111499 29.551605 54.867435
11680 2 2.484951 29.928034 20.516311
11681 2 2.484951 29.928034 33.297295
11682 2 2.484951 29.928034 46.078278
11683 2 1.994807 30.554575 22.586722
11684 2 1.994807 30.554575 35.367705
11685 2 1.994807 30.554575 48.147913
11686 2 4.124599 28.673059 22.60457
11687 2 4.124599 28.673059 35.385554
11688 2 4.124599 28.673059 48.165761
11689 2 3.76516 28.797483 20.235393
11690 2 3.76516 28.797483 33.016377
11691 2 3.76516 28.797483 45.79736
11692 2 2.865007 30.0613 23.916813
11693 2 2.865007 30.0613 36.697021
11694 2 2.865007 30.0613 49.478004
11695 2 10.679688 29.002751 26.793504
11696 2 10.679688 29.002751 39.574488
11697 2 10.679688 29.002751 52.354695
11698 2 9.11434 28.174732 26.749272
11699 2 9.11434 28.174732 39.530255
11700 2 9.11434 28.174732 52.310463
11701 2 8.399353 29.382338 28.698624
11702 2 8.399353 29.382338 41.479607
11703 2 8.399353 29.382338 54.260591
11704 2 11.234018 30.228041 28.786314
11705 2 11.234018 30.228041 41.567297
11706 2 11.234018 30.228041 54.347505
11707 2 9.923078 30.540048 29.899896
11708 2 9.923078 30.540048 42.680104
11709 2 9.923078 30.540048 55.461088
11710 2 9.640272 31.396488 21.482451
11711 2 9.640272 31.396488 34.262658
11712 2 9.640272 31.396488 47.043642
11713 2 8.209908 28.135573 21.866579
11714 2 8.209908 28.135573 34.646786
11715 2 8.209908 28.135573 47.42777
11716 2 10.506971 28.55432 21.999278
11717 2 10.506971 28.55432 34.779485
11718 2 10.506971 28.55432 47.560469
11719 2 7.802233 29.614764 21.250422
11720 2 7.802233 29.614764 34.03063
11721 2 7.802233 29.614764 46.811613
11722 2 11.104869 30.801527 21.9403
11723 2 11.104869 30.801527 34.721284
11724 2 11.104869 30.801527 47.501491
11725 2 3.404165 34.10539 29.210794
11726 2 3.404165 34.10539 41.991002
11727 2 3.404165 34.10539 54.771985
11728 2 4.321823 35.452578 29.095944
11729 2 4.321823 35.452578 41.876927
11730 2 4.321823 35.452578 54.657911
11731 2 3.387049 37.089667 27.152024
11732 2 3.387049 37.089667 39.933007
11733 2 3.387049 37.089667 52.713991
11734 2 1.914673 34.569611 27.789909
11735 2 1.914673 34.569611 40.570116
11736 2 1.914673 34.569611 53.3511
11737 2 1.923231 36.28186 26.430329
11738 2 1.923231 36.28186 39.211312
11739 2 1.923231 36.28186 51.992296
11740 2 2.268276 35.12036 23.408523
11741 2 2.268276 35.12036 36.189506
11742 2 2.268276 35.12036 48.97049
11743 2 2.681787 36.847136 23.402315
11744 2 2.681787 36.847136 36.182522
11745 2 2.681787 36.847136 48.963506
11746 2 3.648459 37.519782 21.300863
11747 2 3.648459 37.519782 34.081847
11748 2 3.648459 37.519782 46.86283
11749 2 2.91441 34.67635 21.282239
11750 2 2.91441 34.67635 34.062446
11751 2 2.91441 34.67635 46.84343
11752 2 3.82351 36.285018 20.00026
11753 2 3.82351 36.285018 32.780468
11754 2 3.82351 36.285018 45.561451
11755 2 11.758783 36.51997 28.716472
11756 2 11.758783 36.51997 41.497456
11757 2 11.758783 36.51997 54.278439
11758 2 11.211844 35.494263 30.079156
11759 2 11.211844 35.494263 42.86014
11760 2 11.211844 35.494263 55.641123
11761 2 8.239084 34.839301 27.95132
11762 2 8.239084 34.839301 40.731528
11763 2 8.239084 34.839301 53.512511
11764 2 8.770073 34.734457 29.688044
11765 2 8.770073 34.734457 42.469028
11766 2 8.770073 34.734457 55.250011
11767 2 10.217553 35.780375 27.270754
11768 2 10.217553 35.780375 40.051738
11769 2 10.217553 35.780375 52.831945
11770 2 11.669701 36.263544 20.84379
11771 2 11.669701 36.263544 33.624773
11772 2 11.669701 36.263544 46.405757
11773 2 8.132108 35.845429 22.669755
11774 2 8.132108 35.845429 35.450739
11775 2 8.132108 35.845429 48.231722
11776 2 11.786402 35.362892 22.372541
11777 2 11.786402 35.362892 35.153525
11778 2 11.786402 35.362892 47.934508
11779 2 9.360579 34.7913 23.292896
11780 2 9.360579 34.7913 36.07388
11781 2 9.360579 34.7913 48.854087
11782 2 9.376917 36.240806 20.728939
11783 2 9.376917 36.240806 33.509923
11784 2 9.376917 36.240806 46.290906
11785 6 6.273062 26.237636 31.317678
11786 6 6.273062 26.237636 44.098661
11787 6 6.273062 26.237636 56.878869
11788 6 6.564037 26.079107 25.020308
11789 6 6.564037 26.079107 37.801291
11790 6 6.564037 26.079107 50.582275
11791 6 12.891559 26.478273 31.590835
11792 6 12.891559 26.478273 44.371819
11793 6 12.891559 26.478273 57.152802
11794 6 12.705616 26.663962 24.837944
11795 6 12.705616 26.663962 37.618928
11796 6 12.705616 26.663962 50.399911
11797 6 0.303811 32.778414 25.23216
11798 6 0.303811 32.778414 38.013144
11799 6 0.303811 32.778414 50.794127
11800 6 0.018283 32.66599 31.638948
11801 6 0.018283 32.66599 44.419932
11802 6 0.018283 32.66599 57.200915
11803 6 6.752314 32.273771 25.178615
11804 6 6.752314 32.273771 37.959599
11805 6 6.752314 32.273771 50.740582
11806 6 6.655452 32.58262 31.562123
11807 6 6.655452 32.58262 44.343106
11808 6 6.655452 32.58262 57.12409
11809 3 3.027999 26.752385 31.4496
11810 3 3.027999 26.752385 44.229808
11811 3 3.027999 26.752385 57.010791
11812 3 6.046274 26.10437 28.388993
11813 3 6.046274 26.10437 41.169977
11814 3 6.046274 26.10437 53.95096
11815 3 6.522024 29.188439 25.023412
11816 3 6.522024 29.188439 37.804395
11817 3 6.522024 29.188439 50.585379
11818 3 3.02372 26.542696 25.031948
11819 3 3.02372 26.542696 37.812156
11820 3 3.02372 26.542696 50.593139
11821 3 6.248166 26.415746 21.872787
11822 3 6.248166 26.415746 34.652994
11823 3 6.248166 26.415746 47.433978
11824 3 12.714563 26.4928 27.942784
11825 3 12.714563 26.4928 40.722992
11826 3 12.714563 26.4928 53.503975
11827 3 6.714581 29.283178 31.453481
11828 3 6.714581 29.283178 44.234464
11829 3 6.714581 29.283178 57.014672
11830 3 9.756584 25.994473 31.101945
11831 3 9.756584 25.994473 43.882929
11832 3 9.756584 25.994473 56.663912
11833 3 12.352401 26.257216 21.799065
11834 3 12.352401 26.257216 34.580049
11835 3 12.352401 26.257216 47.360256
11836 3 12.597473 29.607817 25.13283
11837 3 12.597473 29.607817 37.913814
11838 3 12.597473 29.607817 50.694797
11839 3 12.856938 29.503604 32.040149
11840 3 12.856938 29.503604 44.821132
11841 3 12.856938 29.503604 57.60134
11842 3 9.624712 26.223741 24.920978
11843 3 9.624712 26.223741 37.701185
11844 3 9.624712 26.223741 50.482169
11845 3 3.327921 31.820919 25.951527
11846 3 3.327921 31.820919 38.732511
11847 3 3.327921 31.820919 51.513494
11848 3 0.118646 32.381142 28.488323
11849 3 0.118646 32.381142 41.269307
11850 3 0.118646 32.381142 54.049514
11851 3 6.374203 32.152505 28.545749
11852 3 6.374203 32.152505 41.326732
11853 3 6.374203 32.152505 54.10694
11854 3 0.406508 35.794902 31.879513
11855 3 0.406508 35.794902 44.659721
11856 3 0.406508 35.794902 57.440704
11857 3 3.249342 32.206822 31.680077
11858 3 3.249342 32.206822 44.461061
11859 3 3.249342 32.206822 57.242044
11860 3 6.391708 32.539671 22.093176
11861 3 6.391708 32.539671 34.874159
11862 3 6.391708 32.539671 47.655143
11863 3 0.467582 32.707044 22.078431
11864 3 0.467582 32.707044 34.858639
11865 3 0.467582 32.707044 47.639622
11866 3 6.559758 35.393209 25.381155
11867 3 6.559758 35.393209 38.162139
11868 3 6.559758 35.393209 50.943122
11869 3 6.634446 35.491737 31.015031
11870 3 6.634446 35.491737 43.796015
11871 3 6.634446 35.491737 56.576222
11872 3 10.05884 32.660306 24.650148
11873 3 10.05884 32.660306 37.431132
11874 3 10.05884 32.660306 50.212115
11875 3 12.703282 35.680583 25.102566
11876 3 12.703282 35.680583 37.883549
11877 3 12.703282 35.680583 50.664533
11878 3 9.707959 32.807467 31.704134
11879 3 9.707959 32.807467 44.484341
11880 3 9.707959 32.807467 57.265325
11881 1 16.107058 29.635607 28.679223
11882 1 16.107058 29.635607 41.460207
11883 1 16.107058 29.635607 54.24119
11884 1 16.342016 29.237072 22.174657
11885 1 16.342016 29.237072 34.955641
11886 1 16.342016 29.237072 47.736624
11887 1 22.371952 29.485919 28.280351
11888 1 22.371952 29.485919 41.061335
11889 1 22.371952 29.485919 53.841542
11890 1 22.753952 29.336232 21.736984
11891 1 22.753952 29.336232 34.517968
11892 1 22.753952 29.336232 47.298175
11893 1 15.671764 35.258048 27.858198
11894 1 15.671764 35.258048 40.639182
11895 1 15.671764 35.258048 53.419389
11896 1 16.030814 35.648372 21.754833
11897 1 16.030814 35.648372 34.53504
11898 1 16.030814 35.648372 47.316024
11899 1 23.038314 35.533422 28.304408
11900 1 23.038314 35.533422 41.085391
11901 1 23.038314 35.533422 53.865599
11902 1 22.827085 35.832166 21.646966
11903 1 22.827085 35.832166 34.42795
11904 1 22.827085 35.832166 47.208933
11905 4 15.165671 29.302126 27.802325
11906 4 15.165671 29.302126 40.583309
11907 4 15.165671 29.302126 53.363516
11908 4 17.281069 29.077279 28.749065
11909 4 17.281069 29.077279 41.530048
11910 4 17.281069 29.077279 54.311032
11911 4 16.259936 29.410128 20.880263
11912 4 16.259936 29.410128 33.661246
11913 4 16.259936 29.410128 46.44223
11914 4 15.460146 29.81119 23.025171
11915 4 15.460146 29.81119 35.806154
11916 4 15.460146 29.81119 48.586362
11917 4 23.229314 30.151618 29.00903
11918 4 23.229314 30.151618 41.789238
11919 4 23.229314 30.151618 54.570221
11920 4 22.667205 28.884643 27.14504
11921 4 22.667205 28.884643 39.925247
11922 4 22.667205 28.884643 52.706231
11923 4 23.16863 30.586154 21.586437
11924 4 23.16863 30.586154 34.366645
11925 4 23.16863 30.586154 47.147628
11926 4 21.535595 28.987592 21.465379
11927 4 21.535595 28.987592 34.245586
11928 4 21.535595 28.987592 47.02657
11929 4 16.466108 35.017411 28.838307
11930 4 16.466108 35.017411 41.618514
11931 4 16.466108 35.017411 54.399498
11932 4 15.685379 36.336177 27.117103
11933 4 15.685379 36.336177 39.898087
11934 4 15.685379 36.336177 52.678294
11935 4 15.67332 35.884588 22.99025
11936 4 15.67332 35.884588 35.770458
11937 4 15.67332 35.884588 48.551441
11938 4 16.491004 36.569235 20.911303
11939 4 16.491004 36.569235 33.692287
11940 4 16.491004 36.569235 46.47327
11941 4 21.92771 35.015516 28.651287
11942 4 21.92771 35.015516 41.43227
11943 4 21.92771 35.015516 54.213254
11944 4 24.081231 35.791744 29.082752
11945 4 24.081231 35.791744 41.862959
11946 4 24.081231 35.791744 54.643943
11947 4 24.123632 35.748164 21.657831
11948 4 24.123632 35.748164 34.438814
11949 4 24.123632 35.748164 47.219798
11950 4 21.992285 35.465842 22.605346
11951 4 21.992285 35.465842 35.38633
11952 4 21.992285 35.465842 48.167313
11953 2 15.367175 28.551793 27.129519
11954 2 15.367175 28.551793 39.910503
11955 2 15.367175 28.551793 52.69071
11956 2 17.43667 28.146942 28.319928
11957 2 17.43667 28.146942 41.100911
11958 2 17.43667 28.146942 53.881119
11959 2 15.937842 30.512889 29.268219
11960 2 15.937842 30.512889 42.048427
11961 2 15.937842 30.512889 54.82941
11962 2 14.332816 29.8074 27.831038
11963 2 14.332816 29.8074 40.612021
11964 2 14.332816 29.8074 53.393005
11965 2 18.078136 29.551605 29.305468
11966 2 18.078136 29.551605 42.086452
11967 2 18.078136 29.551605 54.867435
11968 2 15.451588 29.928034 20.516311
11969 2 15.451588 29.928034 33.297295
11970 2 15.451588 29.928034 46.078278
11971 2 14.961444 30.554575 22.586722
11972 2 14.961444 30.554575 35.367705
11973 2 14.961444 30.554575 48.147913
11974 2 17.091625 28.673059 22.60457
11975 2 17.091625 28.673059 35.385554
11976 2 17.091625 28.673059 48.165761
11977 2 16.731797 28.797483 20.235393
11978 2 16.731797 28.797483 33.016377
11979 2 16.731797 28.797483 45.79736
11980 2 15.832033 30.0613 23.916813
11981 2 15.832033 30.0613 36.697021
11982 2 15.832033 30.0613 49.478004
11983 2 23.646714 29.002751 26.793504
11984 2 23.646714 29.002751 39.574488
11985 2 23.646714 29.002751 52.354695
11986 2 22.081366 28.174732 26.749272
11987 2 22.081366 28.174732 39.530255
11988 2 22.081366 28.174732 52.310463
11989 2 21.36599 29.382338 28.698624
11990 2 21.36599 29.382338 41.479607
11991 2 21.36599 29.382338 54.260591
11992 2 24.200655 30.228041 28.786314
11993 2 24.200655 30.228041 41.567297
11994 2 24.200655 30.228041 54.347505
11995 2 22.890104 30.540048 29.899896
11996 2 22.890104 30.540048 42.680104
11997 2 22.890104 30.540048 55.461088
11998 2 22.607298 31.396488 21.482451
11999 2 22.607298 31.396488 34.262658
12000 2 22.607298 31.396488 47.043642
12001 2 21.176545 28.135573 21.866579
12002 2 21.176545 28.135573 34.646786
12003 2 21.176545 28.135573 47.42777
12004 2 23.473997 28.55432 21.999278
12005 2 23.473997 28.55432 34.779485
12006 2 23.473997 28.55432 47.560469
12007 2 20.769259 29.614764 21.250422
12008 2 20.769259 29.614764 34.03063
12009 2 20.769259 29.614764 46.811613
12010 2 24.071506 30.801527 21.9403
12011 2 24.071506 30.801527 34.721284
12012 2 24.071506 30.801527 47.501491
12013 2 16.370802 34.10539 29.210794
12014 2 16.370802 34.10539 41.991002
12015 2 16.370802 34.10539 54.771985
12016 2 17.28846 35.452578 29.095944
12017 2 17.28846 35.452578 41.876927
12018 2 17.28846 35.452578 54.657911
12019 2 16.353686 37.089667 27.152024
12020 2 16.353686 37.089667 39.933007
12021 2 16.353686 37.089667 52.713991
12022 2 14.881699 34.569611 27.789909
12023 2 14.881699 34.569611 40.570116
12024 2 14.881699 34.569611 53.3511
12025 2 14.889868 36.28186 26.430329
12026 2 14.889868 36.28186 39.211312
12027 2 14.889868 36.28186 51.992296
12028 2 15.234913 35.12036 23.408523
12029 2 15.234913 35.12036 36.189506
12030 2 15.234913 35.12036 48.97049
12031 2 15.648813 36.847136 23.402315
12032 2 15.648813 36.847136 36.182522
12033 2 15.648813 36.847136 48.963506
12034 2 16.615096 37.519782 21.300863
12035 2 16.615096 37.519782 34.081847
12036 2 16.615096 37.519782 46.86283
12037 2 15.881436 34.67635 21.282239
12038 2 15.881436 34.67635 34.062446
12039 2 15.881436 34.67635 46.84343
12040 2 16.790536 36.285018 20.00026
12041 2 16.790536 36.285018 32.780468
12042 2 16.790536 36.285018 45.561451
12043 2 24.725809 36.51997 28.716472
12044 2 24.725809 36.51997 41.497456
12045 2 24.725809 36.51997 54.278439
12046 2 24.17887 35.494263 30.079156
12047 2 24.17887 35.494263 42.86014
12048 2 24.17887 35.494263 55.641123
12049 2 21.205721 34.839301 27.95132
12050 2 21.205721 34.839301 40.731528
12051 2 21.205721 34.839301 53.512511
12052 2 21.737099 34.734457 29.688044
12053 2 21.737099 34.734457 42.469028
12054 2 21.737099 34.734457 55.250011
12055 2 23.18419 35.780375 27.270754
12056 2 23.18419 35.780375 40.051738
12057 2 23.18419 35.780375 52.831945
12058 2 24.636727 36.263544 20.84379
12059 2 24.636727 36.263544 33.624773
12060 2 24.636727 36.263544 46.405757
12061 2 21.099134 35.845429 22.669755
12062 2 21.099134 35.845429 35.450739
12063 2 21.099134 35.845429 48.231722
12064 2 24.753428 35.362892 22.372541
12065 2 24.753428 35.362892 35.153525
12066 2 24.753428 35.362892 47.934508
12067 2 22.327605 34.7913 23.292896
12068 2 22.327605 34.7913 36.07388
12069 2 22.327605 34.7913 48.854087
12070 2 22.343554 36.240806 20.728939
12071 2 22.343554 36.240806 33.509923
12072 2 22.343554 36.240806 46.290906
12073 6 19.239699 26.237636 31.317678
12074 6 19.239699 26.237636 44.098661
12075 6 19.239699 26.237636 56.878869
12076 6 19.531063 26.079107 25.020308
12077 6 19.531063 26.079107 37.801291
12078 6 19.531063 26.079107 50.582275
12079 6 25.858196 26.478273 31.590835
12080 6 25.858196 26.478273 44.371819
12081 6 25.858196 26.478273 57.152802
12082 6 25.672642 26.663962 24.837944
12083 6 25.672642 26.663962 37.618928
12084 6 25.672642 26.663962 50.399911
12085 6 13.270448 32.778414 25.23216
12086 6 13.270448 32.778414 38.013144
12087 6 13.270448 32.778414 50.794127
12088 6 12.98492 32.66599 31.638948
12089 6 12.98492 32.66599 44.419932
12090 6 12.98492 32.66599 57.200915
12091 6 19.718951 32.273771 25.178615
12092 6 19.718951 32.273771 37.959599
12093 6 19.718951 32.273771 50.740582
12094 6 19.622478 32.58262 31.562123
12095 6 19.622478 32.58262 44.343106
12096 6 19.622478 32.58262 57.12409
12097 3 15.994636 26.752385 31.4496
12098 3 15.994636 26.752385 44.229808
12099 3 15.994636 26.752385 57.010791
12100 3 19.012911 26.10437 28.388993
12101 3 19.012911 26.10437 41.169977
12102 3 19.012911 26.10437 53.95096
12103 3 19.488661 29.188439 25.023412
12104 3 19.488661 29.188439 37.804395
12105 3 19.488661 29.188439 50.585379
12106 3 15.990357 26.542696 25.031948
12107 3 15.990357 26.542696 37.812156
12108 3 15.990357 26.542696 50.593139
12109 3 19.215192 26.415746 21.872787
12110 3 19.215192 26.415746 34.652994
12111 3 19.215192 26.415746 47.433978
12112 3 25.6812 26.4928 27.942784
12113 3 25.6812 26.4928 40.722992
12114 3 25.6812 26.4928 53.503975
12115 3 19.681218 29.283178 31.453481
12116 3 19.681218 29.283178 44.234464
12117 3 19.681218 29.283178 57.014672
12118 3 22.72361 25.994473 31.101945
12119 3 22.72361 25.994473 43.882929
12120 3 22.72361 25.994473 56.663912
12121 3 25.319038 26.257216 21.799065
12122 3 25.319038 26.257216 34.580049
12123 3 25.319038 26.257216 47.360256
12124 3 25.56411 29.607817 25.13283
12125 3 25.56411 29.607817 37.913814
12126 3 25.56411 29.607817 50.694797
12127 3 25.823964 29.503604 32.040149
12128 3 25.823964 29.503604 44.821132
12129 3 25.823964 29.503604 57.60134
12130 3 22.591349 26.223741 24.920978
12131 3 22.591349 26.223741 37.701185
12132 3 22.591349 26.223741 50.482169
12133 3 16.294558 31.820919 25.951527
12134 3 16.294558 31.820919 38.732511
12135 3 16.294558 31.820919 51.513494
12136 3 13.085283 32.381142 28.488323
12137 3 13.085283 32.381142 41.269307
12138 3 13.085283 32.381142 54.049514
12139 3 19.34084 32.152505 28.545749
12140 3 19.34084 32.152505 41.326732
12141 3 19.34084 32.152505 54.10694
12142 3 13.373145 35.794902 31.879513
12143 3 13.373145 35.794902 44.659721
12144 3 13.373145 35.794902 57.440704
12145 3 16.215979 32.206822 31.680077
12146 3 16.215979 32.206822 44.461061
12147 3 16.215979 32.206822 57.242044
12148 3 19.358345 32.539671 22.093176
12149 3 19.358345 32.539671 34.874159
12150 3 19.358345 32.539671 47.655143
12151 3 13.434608 32.707044 22.078431
12152 3 13.434608 32.707044 34.858639
12153 3 13.434608 32.707044 47.639622
12154 3 19.526784 35.393209 25.381155
12155 3 19.526784 35.393209 38.162139
12156 3 19.526784 35.393209 50.943122
12157 3 19.601472 35.491737 31.015031
12158 3 19.601472 35.491737 43.796015
12159 3 19.601472 35.491737 56.576222
12160 3 23.025477 32.660306 24.650148
12161 3 23.025477 32.660306 37.431132
12162 3 23.025477 32.660306 50.212115
12163 3 25.670308 35.680583 25.102566
12164 3 25.670308 35.680583 37.883549
12165 3 25.670308 35.680583 50.664533
12166 3 22.674596 32.807467 31.704134
12167 3 22.674596 32.807467 44.484341
12168 3 22.674596 32.807467 57.265325
12169 1 29.074084 29.635607 28.679223
12170 1 29.074084 29.635607 41.460207
12171 1 29.074084 29.635607 54.24119
12172 1 29.308653 29.237072 22.174657
12173 1 29.308653 29.237072 34.955641
12174 1 29.308653 29.237072 47.736624
12175 1 35.338589 29.485919 28.280351
12176 1 35.338589 29.485919 41.061335
12177 1 35.338589 29.485919 53.841542
12178 1 35.720978 29.336232 21.736984
12179 1 35.720978 29.336232 34.517968
12180 1 35.720978 29.336232 47.298175
12181 1 28.63879 35.258048 27.858198
12182 1 28.63879 35.258048 40.639182
12183 1 28.63879 35.258048 53.419389
12184 1 28.99784 35.648372 21.754833
12185 1 28.99784 35.648372 34.53504
12186 1 28.99784 35.648372 47.316024
12187 1 36.004951 35.533422 28.304408
12188 1 36.004951 35.533422 41.085391
12189 1 36.004951 35.533422 53.865599
12190 1 35.793722 35.832166 21.646966
12191 1 35.793722 35.832166 34.42795
12192 1 35.793722 35.832166 47.208933
12193 4 28.132697 29.302126 27.802325
12194 4 28.132697 29.302126 40.583309
12195 4 28.132697 29.302126 53.363516
12196 4 30.247706 29.077279 28.749065
12197 4 30.247706 29.077279 41.530048
12198 4 30.247706 29.077279 54.311032
12199 4 29.226573 29.410128 20.880263
12200 4 29.226573 29.410128 33.661246
12201 4 29.226573 29.410128 46.44223
12202 4 28.426783 29.81119 23.025171
12203 4 28.426783 29.81119 35.806154
12204 4 28.426783 29.81119 48.586362
12205 4 36.195951 30.151618 29.00903
12206 4 36.195951 30.151618 41.789238
12207 4 36.195951 30.151618 54.570221
12208 4 35.633842 28.884643 27.14504
12209 4 35.633842 28.884643 39.925247
12210 4 35.633842 28.884643 52.706231
12211 4 36.135267 30.586154 21.586437
12212 4 36.135267 30.586154 34.366645
12213 4 36.135267 30.586154 47.147628
12214 4 34.502232 28.987592 21.465379
12215 4 34.502232 28.987592 34.245586
12216 4 34.502232 28.987592 47.02657
12217 4 29.432745 35.017411 28.838307
12218 4 29.432745 35.017411 41.618514
12219 4 29.432745 35.017411 54.399498
12220 4 28.652016 36.336177 27.117103
12221 4 28.652016 36.336177 39.898087
12222 4 28.652016 36.336177 52.678294
12223 4 28.639957 35.884588 22.99025
12224 4 28.639957 35.884588 35.770458
12225 4 28.639957 35.884588 48.551441
12226 4 29.457641 36.569235 20.911303
12227 4 29.457641 36.569235 33.692287
12228 4 29.457641 36.569235 46.47327
12229 4 34.894347 35.015516 28.651287
12230 4 34.894347 35.015516 41.43227
12231 4 34.894347 35.015516 54.213254
12232 4 37.048257 35.791744 29.082752
12233 4 37.048257 35.791744 41.862959
12234 4 37.048257 35.791744 54.643943
12235 4 37.090269 35.748164 21.657831
12236 4 37.090269 35.748164 34.438814
12237 4 37.090269 35.748164 47.219798
12238 4 34.959311 35.465842 22.605346
12239 4 34.959311 35.465842 35.38633
12240 4 34.959311 35.465842 48.167313
12241 2 28.333812 28.551793 27.129519
12242 2 28.333812 28.551793 39.910503
12243 2 28.333812 28.551793 52.69071
12244 2 30.403696 28.146942 28.319928
12245 2 30.403696 28.146942 41.100911
12246 2 30.403696 28.146942 53.881119
12247 2 28.904868 30.512889 29.268219
12248 2 28.904868 30.512889 42.048427
12249 2 28.904868 30.512889 54.82941
12250 2 27.299453 29.8074 27.831038
12251 2 27.299453 29.8074 40.612021
12252 2 27.299453 29.8074 53.393005
12253 2 31.044773 29.551605 29.305468
12254 2 31.044773 29.551605 42.086452
12255 2 31.044773 29.551605 54.867435
12256 2 28.418225 29.928034 20.516311
12257 2 28.418225 29.928034 33.297295
12258 2 28.418225 29.928034 46.078278
12259 2 27.928081 30.554575 22.586722
12260 2 27.928081 30.554575 35.367705
12261 2 27.928081 30.554575 48.147913
12262 2 30.058262 28.673059 22.60457
12263 2 30.058262 28.673059 35.385554
12264 2 30.058262 28.673059 48.165761
12265 2 29.698823 28.797483 20.235393
12266 2 29.698823 28.797483 33.016377
12267 2 29.698823 28.797483 45.79736
12268 2 28.79867 30.0613 23.916813
12269 2 28.79867 30.0613 36.697021
12270 2 28.79867 30.0613 49.478004
12271 2 36.613351 29.002751 26.793504
12272 2 36.613351 29.002751 39.574488
12273 2 36.613351 29.002751 52.354695
12274 2 35.048003 28.174732 26.749272
12275 2 35.048003 28.174732 39.530255
12276 2 35.048003 28.174732 52.310463
12277 2 34.333016 29.382338 28.698624
12278 2 34.333016 29.382338 41.479607
12279 2 34.333016 29.382338 54.260591
12280 2 37.167681 30.228041 28.786314
12281 2 37.167681 30.228041 41.567297
12282 2 37.167681 30.228041 54.347505
12283 2 35.856741 30.540048 29.899896
12284 2 35.856741 30.540048 42.680104
12285 2 35.856741 30.540048 55.461088
12286 2 35.573935 31.396488 21.482451
12287 2 35.573935 31.396488 34.262658
12288 2 35.573935 31.396488 47.043642
12289 2 34.143182 28.135573 21.866579
12290 2 34.143182 28.135573 34.646786
12291 2 34.143182 28.135573 47.42777
12292 2 36.440634 28.55432 21.999278
12293 2 36.440634 28.55432 34.779485
12294 2 36.440634 28.55432 47.560469
12295 2 33.735896 29.614764 21.250422
12296 2 33.735896 29.614764 34.03063
12297 2 33.735896 29.614764 46.811613
12298 2 37.038143 30.801527 21.9403
12299 2 37.038143 30.801527 34.721284
12300 2 37.038143 30.801527 47.501491
12301 2 29.337439 34.10539 29.210794
12302 2 29.337439 34.10539 41.991002
12303 2 29.337439 34.10539 54.771985
12304 2 30.255486 35.452578 29.095944
12305 2 30.255486 35.452578 41.876927
12306 2 30.255486 35.452578 54.657911
12307 2 29.320712 37.089667 27.152024
12308 2 29.320712 37.089667 39.933007
12309 2 29.320712 37.089667 52.713991
12310 2 27.848336 34.569611 27.789909
12311 2 27.848336 34.569611 40.570116
12312 2 27.848336 34.569611 53.3511
12313 2 27.856505 36.28186 26.430329
12314 2 27.856505 36.28186 39.211312
12315 2 27.856505 36.28186 51.992296
12316 2 28.20155 35.12036 23.408523
12317 2 28.20155 35.12036 36.189506
12318 2 28.20155 35.12036 48.97049
12319 2 28.61545 36.847136 23.402315
12320 2 28.61545 36.847136 36.182522
12321 2 28.61545 36.847136 48.963506
12322 2 29.581733 37.519782 21.300863
12323 2 29.581733 37.519782 34.081847
12324 2 29.581733 37.519782 46.86283
12325 2 28.848073 34.67635 21.282239
12326 2 28.848073 34.67635 34.062446
12327 2 28.848073 34.67635 46.84343
12328 2 29.757173 36.285018 20.00026
12329 2 29.757173 36.285018 32.780468
12330 2 29.757173 36.285018 45.561451
12331 2 37.692446 36.51997 28.716472
12332 2 37.692446 36.51997 41.497456
12333 2 37.692446 36.51997 54.278439
12334 2 37.145507 35.494263 30.079156
12335 2 37.145507 35.494263 42.86014
12336 2 37.145507 35.494263 55.641123
12337 2 34.172747 34.839301 27.95132
12338 2 34.172747 34.839301 40.731528
12339 2 34.172747 34.839301 53.512511
12340 2 34.703736 34.734457 29.688044
12341 2 34.703736 34.734457 42.469028
12342 2 34.703736 34.734457 55.250011
12343 2 36.150827 35.780375 27.270754
12344 2 36.150827 35.780375 40.051738
12345 2 36.150827 35.780375 52.831945
12346 2 37.603364 36.263544 20.84379
12347 2 37.603364 36.263544 33.624773
12348 2 37.603364 36.263544 46.405757
12349 2 34.065771 35.845429 22.669755
12350 2 34.065771 35.845429 35.450739
12351 2 34.065771 35.845429 48.231722
12352 2 37.720065 35.362892 22.372541
12353 2 37.720065 35.362892 35.153525
12354 2 37.720065 35.362892 47.934508
12355 2 35.294242 34.7913 23.292896
12356 2 35.294242 34.7913 36.07388
12357 2 35.294242 34.7913 48.854087
12358 2 35.310191 36.240806 20.728939
12359 2 35.310191 36.240806 33.509923
12360 2 35.310191 36.240806 46.290906
12361 6 32.206336 26.237636 31.317678
12362 6 32.206336 26.237636 44.098661
12363 6 32.206336 26.237636 56.878869
12364 6 32.4977 26.079107 25.020308
12365 6 32.4977 26.079107 37.801291
12366 6 32.4977 26.079107 50.582275
12367 6 38.824833 26.478273 31.590835
12368 6 38.824833 26.478273 44.371819
12369 6 38.824833 26.478273 57.152802
12370 6 38.639279 26.663962 24.837944
12371 6 38.639279 26.663962 37.618928
12372 6 38.639279 26.663962 50.399911
12373 6 26.237085 32.778414 25.23216
12374 6 26.237085 32.778414 38.013144
12375 6 26.237085 32.778414 50.794127
12376 6 25.951946 32.66599 31.638948
12377 6 25.951946 32.66599 44.419932
12378 6 25.951946 32.66599 57.200915
12379 6 32.685977 32.273771 25.178615
12380 6 32.685977 32.273771 37.959599
12381 6 32.685977 32.273771 50.740582
12382 6 32.589115 32.58262 31.562123
12383 6 32.589115 32.58262 44.343106
12384 6 32.589115 32.58262 57.12409
12385 3 28.961273 26.752385 31.4496
12386 3 28.961273 26.752385 44.229808
12387 3 28.961273 26.752385 57.010791
12388 3 31.979548 26.10437 28.388993
12389 3 31.979548 26.10437 41.169977
12390 3 31.979548 26.10437 53.95096
12391 3 32.455298 29.188439 25.023412
12392 3 32.455298 29.188439 37.804395
12393 3 32.455298 29.188439 50.585379
12394 3 28.956994 26.542696 25.031948
12395 3 28.956994 26.542696 37.812156
12396 3 28.956994 26.542696 50.593139
12397 3 32.181829 26.415746 21.872787
12398 3 32.181829 26.415746 34.652994
12399 3 32.181829 26.415746 47.433978
12400 3 38.648226 26.4928 27.942784
12401 3 38.648226 26.4928 40.722992
12402 3 38.648226 26.4928 53.503975
12403 3 32.647855 29.283178 31.453481
12404 3 32.647855 29.283178 44.234464
12405 3 32.647855 29.283178 57.014672
12406 3 35.690247 25.994473 31.101945
12407 3 35.690247 25.994473 43.882929
12408 3 35.690247 25.994473 56.663912
12409 3 38.285675 26.257216 21.799065
12410 3 38.285675 26.257216 34.580049
12411 3 38.285675 26.257216 47.360256
12412 3 38.530747 29.607817 25.13283
12413 3 38.530747 29.607817 37.913814
12414 3 38.530747 29.607817 50.694797
12415 3 38.790601 29.503604 32.040149
12416 3 38.790601 29.503604 44.821132
12417 3 38.790601 29.503604 57.60134
12418 3 35.557986 26.223741 24.920978
12419 3 35.557986 26.223741 37.701185
12420 3 35.557986 26.223741 50.482169
12421 3 29.261195 31.820919 25.951527
12422 3 29.261195 31.820919 38.732511
12423 3 29.261195 31.820919 51.513494
12424 3 26.05192 32.381142 28.488323
12425 3 26.05192 32.381142 41.269307
12426 3 26.05192 32.381142 54.049514
12427 3 32.307477 32.152505 28.545749
12428 3 32.307477 32.152505 41.326732
12429 3 32.307477 32.152505 54.10694
12430 3 26.339782 35.794902 31.879513
12431 3 26.339782 35.794902 44.659721
12432 3 26.339782 35.794902 57.440704
12433 3 29.182616 32.206822 31.680077
12434 3 29.182616 32.206822 44.461061
12435 3 29.182616 32.206822 57.242044
12436 3 32.325371 32.539671 22.093176
12437 3 32.325371 32.539671 34.874159
12438 3 32.325371 32.539671 47.655143
12439 3 26.401245 32.707044 22.078431
12440 3 26.401245 32.707044 34.858639
12441 3 26.401245 32.707044 47.639622
12442 3 32.493421 35.393209 25.381155
12443 3 32.493421 35.393209 38.162139
12444 3 32.493421 35.393209 50.943122
12445 3 32.568109 35.491737 31.015031
12446 3 32.568109 35.491737 43.796015
12447 3 32.568109 35.491737 56.576222
12448 3 35.992503 32.660306 24.650148
12449 3 35.992503 32.660306 37.431132
12450 3 35.992503 32.660306 50.212115
12451 3 38.636945 35.680583 25.102566
12452 3 38.636945 35.680583 37.883549
12453 3 38.636945 35.680583 50.664533
12454 3 35.641233 32.807467 31.704134
12455 3 35.641233 32.807467 44.484341
12456 3 35.641233 32.807467 57.265325
12457 1 3.140421 42.267467 28.679223
12458 1 3.140421 42.267467 41.460207
12459 1 3.140421 42.267467 54.24119
12460 1 3.375379 41.868932 22.174657
12461 1 3.375379 41.868932 34.955641
12462 1 3.375379 41.868932 47.736624
12463 1 9.404926 42.117779 28.280351
12464 1 9.404926 42.117779 41.061335
12465 1 9.404926 42.117779 53.841542
12466 1 9.787315 41.968092 21.736984
12467 1 9.787315 41.968092 34.517968
12468 1 9.787315 41.968092 47.298175
12469 1 2.705127 47.889908 27.858198
12470 1 2.705127 47.889908 40.639182
12471 1 2.705127 47.889908 53.419389
12472 1 3.064177 48.280232 21.754833
12473 1 3.064177 48.280232 34.53504
12474 1 3.064177 48.280232 47.316024
12475 1 10.071288 48.165282 28.304408
12476 1 10.071288 48.165282 41.085391
12477 1 10.071288 48.165282 53.865599
12478 1 9.860448 48.464026 21.646966
12479 1 9.860448 48.464026 34.42795
12480 1 9.860448 48.464026 47.208933
12481 4 2.199034 41.933986 27.802325
12482 4 2.199034 41.933986 40.583309
12483 4 2.199034 41.933986 53.363516
12484 4 4.314432 41.709139 28.749065
12485 4 4.314432 41.709139 41.530048
12486 4 4.314432 41.709139 54.311032
12487 4 3.293299 42.041988 20.880263
12488 4 3.293299 42.041988 33.661246
12489 4 3.293299 42.041988 46.44223
12490 4 2.493509 42.44305 23.025171
12491 4 2.493509 42.44305 35.806154
12492 4 2.493509 42.44305 48.586362
12493 4 10.262677 42.783478 29.00903
12494 4 10.262677 42.783478 41.789238
12495 4 10.262677 42.783478 54.570221
12496 4 9.700568 41.516503 27.14504
12497 4 9.700568 41.516503 39.925247
12498 4 9.700568 41.516503 52.706231
12499 4 10.201993 43.218014 21.586437
12500 4 10.201993 43.218014 34.366645
12501 4 10.201993 43.218014 47.147628
12502 4 8.568569 41.619452 21.465379
12503 4 8.568569 41.619452 34.245586
12504 4 8.568569 41.619452 47.02657
12505 4 3.499471 47.649271 28.838307
12506 4 3.499471 47.649271 41.618514
12507 4 3.499471 47.649271 54.399498
12508 4 2.718353 48.968037 27.117103
12509 4 2.718353 48.968037 39.898087
12510 4 2.718353 48.968037 52.678294
12511 4 2.706683 48.516448 22.99025
12512 4 2.706683 48.516448 35.770458
12513 4 2.706683 48.516448 48.551441
12514 4 3.523978 49.201095 20.911303
12515 4 3.523978 49.201095 33.692287
12516 4 3.523978 49.201095 46.47327
12517 4 8.960684 47.647376 28.651287
12518 4 8.960684 47.647376 41.43227
12519 4 8.960684 47.647376 54.213254
12520 4 11.114594 48.423604 29.082752
12521 4 11.114594 48.423604 41.862959
12522 4 11.114594 48.423604 54.643943
12523 4 11.156606 48.380024 21.657831
12524 4 11.156606 48.380024 34.438814
12525 4 11.156606 48.380024 47.219798
12526 4 9.025648 48.097702 22.605346
12527 4 9.025648 48.097702 35.38633
12528 4 9.025648 48.097702 48.167313
12529 2 2.400538 41.183653 27.129519
12530 2 2.400538 41.183653 39.910503
12531 2 2.400538 41.183653 52.69071
12532 2 4.470033 40.778802 28.319928
12533 2 4.470033 40.778802 41.100911
12534 2 4.470033 40.778802 53.881119
12535 2 2.971205 43.144749 29.268219
12536 2 2.971205 43.144749 42.048427
12537 2 2.971205 43.144749 54.82941
12538 2 1.366179 42.43926 27.831038
12539 2 1.366179 42.43926 40.612021
12540 2 1.366179 42.43926 53.393005
12541 2 5.111499 42.183465 29.305468
12542 2 5.111499 42.183465 42.086452
12543 2 5.111499 42.183465 54.867435
12544 2 2.484951 42.559894 20.516311
12545 2 2.484951 42.559894 33.297295
12546 2 2.484951 42.559894 46.078278
12547 2 1.994807 43.186435 22.586722
12548 2 1.994807 43.186435 35.367705
12549 2 1.994807 43.186435 48.147913
12550 2 4.124599 41.304919 22.60457
12551 2 4.124599 41.304919 35.385554
12552 2 4.124599 41.304919 48.165761
12553 2 3.76516 41.429343 20.235393
12554 2 3.76516 41.429343 33.016377
12555 2 3.76516 41.429343 45.79736
12556 2 2.865007 42.69316 23.916813
12557 2 2.865007 42.69316 36.697021
12558 2 2.865007 42.69316 49.478004
12559 2 10.679688 41.634611 26.793504
12560 2 10.679688 41.634611 39.574488
12561 2 10.679688 41.634611 52.354695
12562 2 9.11434 40.806592 26.749272
12563 2 9.11434 40.806592 39.530255
12564 2 9.11434 40.806592 52.310463
12565 2 8.399353 42.014198 28.698624
12566 2 8.399353 42.014198 41.479607
12567 2 8.399353 42.014198 54.260591
12568 2 11.234018 42.859901 28.786314
12569 2 11.234018 42.859901 41.567297
12570 2 11.234018 42.859901 54.347505
12571 2 9.923078 43.171908 29.899896
12572 2 9.923078 43.171908 42.680104
12573 2 9.923078 43.171908 55.461088
12574 2 9.640272 44.028348 21.482451
12575 2 9.640272 44.028348 34.262658
12576 2 9.640272 44.028348 47.043642
12577 2 8.209908 40.767433 21.866579
12578 2 8.209908 40.767433 34.646786
12579 2 8.209908 40.767433 47.42777
12580 2 10.506971 41.18618 21.999278
12581 2 10.506971 41.18618 34.779485
12582 2 10.506971 41.18618 47.560469
12583 2 7.802233 42.246624 21.250422
12584 2 7.802233 42.246624 34.03063
12585 2 7.802233 42.246624 46.811613
12586 2 11.104869 43.433387 21.9403
12587 2 11.104869 43.433387 34.721284
12588 2 11.104869 43.433387 47.501491
12589 2 3.404165 46.73725 29.210794
12590 2 3.404165 46.73725 41.991002
12591 2 3.404165 46.73725 54.771985
12592 2 4.321823 48.084438 29.095944
12593 2 4.321823 48.084438 41.876927
12594 2 4.321823 48.084438 54.657911
12595 2 3.387049 49.721527 27.152024
12596 2 3.387049 49.721527 39.933007
12597 2 3.387049 49.721527 52.713991
12598 2 1.914673 47.201471 27.789909
12599 2 1.914673 47.201471 40.570116
12600 2 1.914673 47.201471 53.3511
12601 2 1.923231 48.91372 26.430329
12602 2 1.923231 48.91372 39.211312
12603 2 1.923231 48.91372 51.992296
12604 2 2.268276 47.75222 23.408523
12605 2 2.268276 47.75222 36.189506
12606 2 2.268276 47.75222 48.97049
12607 2 2.681787 49.478996 23.402315
12608 2 2.681787 49.478996 36.182522
12609 2 2.681787 49.478996 48.963506
12610 2 3.648459 50.151642 21.300863
12611 2 3.648459 50.151642 34.081847
12612 2 3.648459 50.151642 46.86283
12613 2 2.91441 47.30821 21.282239
12614 2 2.91441 47.30821 34.062446
12615 2 2.91441 47.30821 46.84343
12616 2 3.82351 48.916878 20.00026
12617 2 3.82351 48.916878 32.780468
12618 2 3.82351 48.916878 45.561451
12619 2 11.758783 49.15183 28.716472
12620 2 11.758783 49.15183 41.497456
12621 2 11.758783 49.15183 54.278439
12622 2 11.211844 48.126123 30.079156
12623 2 11.211844 48.126123 42.86014
12624 2 11.211844 48.126123 55.641123
12625 2 8.239084 47.471161 27.95132
12626 2 8.239084 47.471161 40.731528
12627 2 8.239084 47.471161 53.512511
12628 2 8.770073 47.366317 29.688044
12629 2 8.770073 47.366317 42.469028
12630 2 8.770073 47.366317 55.250011
12631 2 10.217553 48.412235 27.270754
12632 2 10.217553 48.412235 40.051738
12633 2 10.217553 48.412235 52.831945
12634 2 11.669701 48.895404 20.84379
12635 2 11.669701 48.895404 33.624773
12636 2 11.669701 48.895404 46.405757
12637 2 8.132108 48.477289 22.669755
12638 2 8.132108 48.477289 35.450739
12639 2 8.132108 48.477289 48.231722
12640 2 11.786402 47.994752 22.372541
12641 2 11.786402 47.994752 35.153525
12642 2 11.786402 47.994752 47.934508
12643 2 9.360579 47.42316 23.292896
12644 2 9.360579 47.42316 36.07388
12645 2 9.360579 47.42316 48.854087
12646 2 9.376917 48.872666 20.728939
12647 2 9.376917 48.872666 33.509923
12648 2 9.376917 48.872666 46.290906
12649 6 6.273062 38.869496 31.317678
12650 6 6.273062 38.869496 44.098661
12651 6 6.273062 38.869496 56.878869
12652 6 6.564037 38.710967 25.020308
12653 6 6.564037 38.710967 37.801291
12654 6 6.564037 38.710967 50.582275
12655 6 12.891559 39.110133 31.590835
12656 6 12.891559 39.110133 44.371819
12657 6 12.891559 39.110133 57.152802
12658 6 12.705616 39.295822 24.837944
12659 6 12.705616 39.295822 37.618928
12660 6 12.705616 39.295822 50.399911
12661 6 0.303811 45.410274 25.23216
12662 6 0.303811 45.410274 38.013144
12663 6 0.303811 45.410274 50.794127
12664 6 0.018283 45.29785 31.638948
12665 6 0.018283 45.29785 44.419932
12666 6 0.018283 45.29785 57.200915
12667 6 6.752314 44.905631 25.178615
12668 6 6.752314 44.905631 37.959599
12669 6 6.752314 44.905631 50.740582
12670 6 6.655452 45.21448 31.562123
12671 6 6.655452 45.21448 44.343106
12672 6 6.655452 45.21448 57.12409
12673 3 3.027999 39.384245 31.4496
12674 3 3.027999 39.384245 44.229808
12675 3 3.027999 39.384245 57.010791
12676 3 6.046274 38.73623 28.388993
12677 3 6.046274 38.73623 41.169977
12678 3 6.046274 38.73623 53.95096
12679 3 6.522024 41.820299 25.023412
12680 3 6.522024 41.820299 37.804395
12681 3 6.522024 41.820299 50.585379
12682 3 3.02372 39.174556 25.031948
12683 3 3.02372 39.174556 37.812156
12684 3 3.02372 39.174556 50.593139
12685 3 6.248166 39.047606 21.872787
12686 3 6.248166 39.047606 34.652994
12687 3 6.248166 39.047606 47.433978
12688 3 12.714563 39.12466 27.942784
12689 3 12.714563 39.12466 40.722992
12690 3 12.714563 39.12466 53.503975
12691 3 6.714581 41.915038 31.453481
12692 3 6.714581 41.915038 44.234464
12693 3 6.714581 41.915038 57.014672
12694 3 9.756584 38.626333 31.101945
12695 3 9.756584 38.626333 43.882929
12696 3 9.756584 38.626333 56.663912
12697 3 12.352401 38.889076 21.799065
12698 3 12.352401 38.889076 34.580049
12699 3 12.352401 38.889076 47.360256
12700 3 12.597473 42.239677 25.13283
12701 3 12.597473 42.239677 37.913814
12702 3 12.597473 42.239677 50.694797
12703 3 12.856938 42.135464 32.040149
12704 3 12.856938 42.135464 44.821132
12705 3 12.856938 42.135464 57.60134
12706 3 9.624712 38.855601 24.920978
12707 3 9.624712 38.855601 37.701185
12708 3 9.624712 38.855601 50.482169
12709 3 3.327921 44.452779 25.951527
12710 3 3.327921 44.452779 38.732511
12711 3 3.327921 44.452779 51.513494
12712 3 0.118646 45.013002 28.488323
12713 3 0.118646 45.013002 41.269307
12714 3 0.118646 45.013002 54.049514
12715 3 6.374203 44.784365 28.545749
12716 3 6.374203 44.784365 41.326732
12717 3 6.374203 44.784365 54.10694
12718 3 0.406508 48.426762 31.879513
12719 3 0.406508 48.426762 44.659721
12720 3 0.406508 48.426762 57.440704
12721 3 3.249342 44.838682 31.680077
12722 3 3.249342 44.838682 44.461061
12723 3 3.249342 44.838682 57.242044
12724 3 6.391708 45.171531 22.093176
12725 3 6.391708 45.171531 34.874159
12726 3 6.391708 45.171531 47.655143
12727 3 0.467582 45.338904 22.078431
12728 3 0.467582 45.338904 34.858639
12729 3 0.467582 45.338904 47.639622
12730 3 6.559758 48.025069 25.381155
12731 3 6.559758 48.025069 38.162139
12732 3 6.559758 48.025069 50.943122
12733 3 6.634446 48.123597 31.015031
12734 3 6.634446 48.123597 43.796015
12735 3 6.634446 48.123597 56.576222
12736 3 10.05884 45.292166 24.650148
12737 3 10.05884 45.292166 37.431132
12738 3 10.05884 45.292166 50.212115
12739 3 12.703282 48.312443 25.102566
12740 3 12.703282 48.312443 37.883549
12741 3 12.703282 48.312443 50.664533
12742 3 9.707959 45.439327 31.704134
12743 3 9.707959 45.439327 44.484341
12744 3 9.707959 45.439327 57.265325
12745 1 16.107058 42.267467 28.679223
12746 1 16.107058 42.267467 41.460207
12747 1 16.107058 42.267467 54.24119
12748 1 16.342016 41.868932 22.174657
12749 1 16.342016 41.868932 34.955641
12750 1 16.342016 41.868932 47.736624
12751 1 22.371952 42.117779 28.280351
12752 1 22.371952 42.117779 41.061335
12753 1 22.371952 42.117779 53.841542
12754 1 22.753952 41.968092 21.736984
12755 1 22.753952 41.968092 34.517968
12756 1 22.753952 41.968092 47.298175
12757 1 15.671764 47.889908 27.858198
12758 1 15.671764 47.889908 40.639182
12759 1 15.671764 47.889908 53.419389
12760 1 16.030814 48.280232 21.754833
12761 1 16.030814 48.280232 34.53504
12762 1 16.030814 48.280232 47.316024
12763 1 23.038314 48.165282 28.304408
12764 1 23.038314 48.165282 41.085391
12765 1 23.038314 48.165282 53.865599
12766 1 22.827085 48.464026 21.646966
12767 1 22.827085 48.464026 34.42795
12768 1 22.827085 48.464026 47.208933
12769 4 15.165671 41.933986 27.802325
12770 4 15.165671 41.933986 40.583309
12771 4 15.165671 41.933986 53.363516
12772 4 17.281069 41.709139 28.749065
12773 4 17.281069 41.709139 41.530048
12774 4 17.281069 41.709139 54.311032
12775 4 16.259936 42.041988 20.880263
12776 4 16.259936 42.041988 33.661246
12777 4 16.259936 42.041988 46.44223
12778 4 15.460146 42.44305 23.025171
12779 4 15.460146 42.44305 35.806154
12780 4 15.460146 42.44305 48.586362
12781 4 23.229314 42.783478 29.00903
12782 4 23.229314 42.783478 41.789238
12783 4 23.229314 42.783478 54.570221
12784 4 22.667205 41.516503 27.14504
12785 4 22.667205 41.516503 39.925247
12786 4 22.667205 41.516503 52.706231
12787 4 23.16863 43.218014 21.586437
12788 4 23.16863 43.218014 34.366645
12789 4 23.16863 43.218014 47.147628
12790 4 21.535595 41.619452 21.465379
12791 4 21.535595 41.619452 34.245586
12792 4 21.535595 41.619452 47.02657
12793 4 16.466108 47.649271 28.838307
12794 4 16.466108 47.649271 41.618514
12795 4 16.466108 47.649271 54.399498
12796 4 15.685379 48.968037 27.117103
12797 4 15.685379 48.968037 39.898087
12798 4 15.685379 48.968037 52.678294
12799 4 15.67332 48.516448 22.99025
12800 4 15.67332 48.516448 35.770458
12801 4 15.67332 48.516448 48.551441
12802 4 16.491004 49.201095 20.911303
12803 4 16.491004 49.201095 33.692287
12804 4 16.491004 49.201095 46.47327
12805 4 21.92771 47.647376 28.651287
12806 4 21.92771 47.647376 41.43227
12807 4 21.92771 47.647376 54.213254
12808 4 24.081231 48.423604 29.082752
12809 4 24.081231 48.423604 41.862959
12810 4 24.081231 48.423604 54.643943
12811 4 24.123632 48.380024 21.657831
12812 4 24.123632 48.380024 34.438814
12813 4 24.123632 48.380024 47.219798
12814 4 21.992285 48.097702 22.605346
12815 4 21.992285 48.097702 35.38633
12816 4 21.992285 48.097702 48.167313
12817 2 15.367175 41.183653 27.129519
12818 2 15.367175 41.183653 39.910503
12819 2 15.367175 41.183653 52.69071
12820 2 17.43667 40.778802 28.319928
12821 2 17.43667 40.778802 41.100911
12822 2 17.43667 40.778802 53.881119
12823 2 15.937842 43.144749 29.268219
12824 2 15.937842 43.144749 42.048427
12825 2 15.937842 43.144749 54.82941
12826 2 14.332816 42.43926 27.831038
12827 2 14.332816 42.43926 40.612021
12828 2 14.332816 42.43926 53.393005
12829 2 18.078136 42.183465 29.305468
12830 2 18.078136 42.183465 42.086452
12831 2 18.078136 42.183465 54.867435
12832 2 15.451588 42.559894 20.516311
12833 2 15.451588 42.559894 33.297295
12834 2 15.451588 42.559894 46.078278
12835 2 14.961444 43.186435 22.586722
12836 2 14.961444 43.186435 35.367705
12837 2 14.961444 43.186435 48.147913
12838 2 17.091625 41.304919 22.60457
12839 2 17.091625 41.304919 35.385554
12840 2 17.091625 41.304919 48.165761
12841 2 16.731797 41.429343 20.235393
12842 2 16.731797 41.429343 33.016377
12843 2 16.731797 41.429343 45.79736
12844 2 15.832033 42.69316 23.916813
12845 2 15.832033 42.69316 36.697021
12846 2 15.832033 42.69316 49.478004
12847 2 23.646714 41.634611 26.793504
12848 2 23.646714 41.634611 39.574488
12849 2 23.646714 41.634611 52.354695
12850 2 22.081366 40.806592 26.749272
12851 2 22.081366 40.806592 39.530255
12852 2 22.081366 40.806592 52.310463
12853 2 21.36599 42.014198 28.698624
12854 2 21.36599 42.014198 41.479607
12855 2 21.36599 42.014198 54.260591
12856 2 24.200655 42.859901 28.786314
12857 2 24.200655 42.859901 41.567297
12858 2 24.200655 42.859901 54.347505
12859 2 22.890104 43.171908 29.899896
12860 2 22.890104 43.171908 42.680104
12861 2 22.890104 43.171908 55.461088
12862 2 22.607298 44.028348 21.482451
12863 2 22.607298 44.028348 34.262658
12864 2 22.607298 44.028348 47.043642
12865 2 21.176545 40.767433 21.866579
12866 2 21.176545 40.767433 34.646786
12867 2 21.176545 40.767433 47.42777
12868 2 23.473997 41.18618 21.999278
12869 2 23.473997 41.18618 34.779485
12870 2 23.473997 41.18618 47.560469
12871 2 20.769259 42.246624 21.250422
12872 2 20.769259 42.246624 34.03063
12873 2 20.769259 42.246624 46.811613
12874 2 24.071506 43.433387 21.9403
12875 2 24.071506 43.433387 34.721284
12876 2 24.071506 43.433387 47.501491
12877 2 16.370802 46.73725 29.210794
12878 2 16.370802 46.73725 41.991002
12879 2 16.370802 46.73725 54.771985
12880 2 17.28846 48.084438 29.095944
12881 2 17.28846 48.084438 41.876927
12882 2 17.28846 48.084438 54.657911
12883 2 16.353686 49.721527 27.152024
12884 2 16.353686 49.721527 39.933007
12885 2 16.353686 49.721527 52.713991
12886 2 14.881699 47.201471 27.789909
12887 2 14.881699 47.201471 40.570116
12888 2 14.881699 47.201471 53.3511
12889 2 14.889868 48.91372 26.430329
12890 2 14.889868 48.91372 39.211312
12891 2 14.889868 48.91372 51.992296
12892 2 15.234913 47.75222 23.408523
12893 2 15.234913 47.75222 36.189506
12894 2 15.234913 47.75222 48.97049
12895 2 15.648813 49.478996 23.402315
12896 2 15.648813 49.478996 36.182522
12897 2 15.648813 49.478996 48.963506
12898 2 16.615096 50.151642 21.300863
12899 2 16.615096 50.151642 34.081847
12900 2 16.615096 50.151642 46.86283
12901 2 15.881436 47.30821 21.282239
12902 2 15.881436 47.30821 34.062446
12903 2 15.881436 47.30821 46.84343
12904 2 16.790536 48.916878 20.00026
12905 2 16.790536 48.916878 32.780468
12906 2 16.790536 48.916878 45.561451
12907 2 24.725809 49.15183 28.716472
12908 2 24.725809 49.15183 41.497456
12909 2 24.725809 49.15183 54.278439
12910 2 24.17887 48.126123 30.079156
12911 2 24.17887 48.126123 42.86014
12912 2 24.17887 48.126123 55.641123
12913 2 21.205721 47.471161 27.95132
12914 2 21.205721 47.471161 40.731528
12915 2 21.205721 47.471161 53.512511
12916 2 21.737099 47.366317 29.688044
12917 2 21.737099 47.366317 42.469028
12918 2 21.737099 47.366317 55.250011
12919 2 23.18419 48.412235 27.270754
12920 2 23.18419 48.412235 40.051738
12921 2 23.18419 48.412235 52.831945
12922 2 24.636727 48.895404 20.84379
12923 2 24.636727 48.895404 33.624773
12924 2 24.636727 48.895404 46.405757
12925 2 21.099134 48.477289 22.669755
12926 2 21.099134 48.477289 35.450739
12927 2 21.099134 48.477289 48.231722
12928 2 24.753428 47.994752 22.372541
12929 2 24.753428 47.994752 35.153525
12930 2 24.753428 47.994752 47.934508
12931 2 22.327605 47.42316 23.292896
12932 2 22.327605 47.42316 36.07388
12933 2 22.327605 47.42316 48.854087
12934 2 22.343554 48.872666 20.728939
12935 2 22.343554 48.872666 33.509923
12936 2 22.343554 48.872666 46.290906
12937 6 19.239699 38.869496 31.317678
12938 6 19.239699 38.869496 44.098661
12939 6 19.239699 38.869496 56.878869
12940 6 19.531063 38.710967 25.020308
12941 6 19.531063 38.710967 37.801291
12942 6 19.531063 38.710967 50.582275
12943 6 25.858196 39.110133 31.590835
12944 6 25.858196 39.110133 44.371819
12945 6 25.858196 39.110133 57.152802
12946 6 25.672642 39.295822 24.837944
12947 6 25.672642 39.295822 37.618928
12948 6 25.672642 39.295822 50.399911
12949 6 13.270448 45.410274 25.23216
12950 6 13.270448 45.410274 38.013144
12951 6 13.270448 45.410274 50.794127
12952 6 12.98492 45.29785 31.638948
12953 6 12.98492 45.29785 44.419932
12954 6 12.98492 45.29785 57.200915
12955 6 19.718951 44.905631 25.178615
12956 6 19.718951 44.905631 37.959599
12957 6 19.718951 44.905631 50.740582
12958 6 19.622478 45.21448 31.562123
12959 6 19.622478 45.21448 44.343106
12960 6 19.622478 45.21448 57.12409
12961 3 15.994636 39.384245 31.4496
12962 3 15.994636 39.384245 44.229808
12963 3 15.994636 39.384245 57.010791
12964 3 19.012911 38.73623 28.388993
12965 3 19.012911 38.73623 41.169977
12966 3 19.012911 38.73623 53.95096
12967 3 19.488661 41.820299 25.023412
12968 3 19.488661 41.820299 37.804395
12969 3 19.488661 41.820299 50.585379
12970 3 15.990357 39.174556 25.031948
12971 3 15.990357 39.174556 37.812156
12972 3 15.990357 39.174556 50.593139
12973 3 19.215192 39.047606 21.872787
12974 3 19.215192 39.047606 34.652994
12975 3 19.215192 39.047606 47.433978
12976 3 25.6812 39.12466 27.942784
12977 3 25.6812 39.12466 40.722992
12978 3 25.6812 39.12466 53.503975
12979 3 19.681218 41.915038 31.453481
12980 3 19.681218 41.915038 44.234464
12981 3 19.681218 41.915038 57.014672
12982 3 22.72361 38.626333 31.101945
12983 3 22.72361 38.626333 43.882929
12984 3 22.72361 38.626333 56.663912
12985 3 25.319038 38.889076 21.799065
12986 3 25.319038 38.889076 34.580049
12987 3 25.319038 38.889076 47.360256
12988 3 25.56411 42.239677 25.13283
12989 3 25.56411 42.239677 37.913814
12990 3 25.56411 42.239677 50.694797
12991 3 25.823964 42.135464 32.040149
12992 3 25.823964 42.135464 44.821132
12993 3 25.823964 42.135464 57.60134
12994 3 22.591349 38.855601 24.920978
12995 3 22.591349 38.855601 37.701185
12996 3 22.591349 38.855601 50.482169
12997 3 16.294558 44.452779 25.951527
12998 3 16.294558 44.452779 38.732511
12999 3 16.294558 44.452779 51.513494
13000 3 13.085283 45.013002 28.488323
13001 3 13.085283 45.013002 41.269307
13002 3 13.085283 45.013002 54.049514
13003 3 19.34084 44.784365 28.545749
13004 3 19.34084 44.784365 41.326732
13005 3 19.34084 44.784365 54.10694
13006 3 13.373145 48.426762 31.879513
13007 3 13.373145 48.426762 44.659721
13008 3 13.373145 48.426762 57.440704
13009 3 16.215979 44.838682 31.680077
13010 3 16.215979 44.838682 44.461061
13011 3 16.215979 44.838682 57.242044
13012 3 19.358345 45.171531 22.093176
13013 3 19.358345 45.171531 34.874159
13014 3 19.358345 45.171531 47.655143
13015 3 13.434608 45.338904 22.078431
13016 3 13.434608 45.338904 34.858639
13017 3 13.434608 45.338904 47.639622
13018 3 19.526784 48.025069 25.381155
13019 3 19.526784 48.025069 38.162139
13020 3 19.526784 48.025069 50.943122
13021 3 19.601472 48.123597 31.015031
13022 3 19.601472 48.123597 43.796015
13023 3 19.601472 48.123597 56.576222
13024 3 23.025477 45.292166 24.650148
13025 3 23.025477 45.292166 37.431132
13026 3 23.025477 45.292166 50.212115
13027 3 25.670308 48.312443 25.102566
13028 3 25.670308 48.312443 37.883549
13029 3 25.670308 48.312443 50.664533
13030 3 22.674596 45.439327 31.704134
13031 3 22.674596 45.439327 44.484341
13032 3 22.674596 45.439327 57.265325
13033 1 29.074084 42.267467 28.679223
13034 1 29.074084 42.267467 41.460207
13035 1 29.074084 42.267467 54.24119
13036 1 29.308653 41.868932 22.174657
13037 1 29.308653 41.868932 34.955641
13038 1 29.308653 41.868932 47.736624
13039 1 35.338589 42.117779 28.280351
13040 1 35.338589 42.117779 41.061335
13041 1 35.338589 42.117779 53.841542
13042 1 35.720978 41.968092 21.736984
13043 1 35.720978 41.968092 34.517968
13044 1 35.720978 41.968092 47.298175
13045 1 28.63879 47.889908 27.858198
13046 1 28.63879 47.889908 40.639182
13047 1 28.63879 47.889908 53.419389
13048 1 28.99784 48.280232 21.754833
13049 1 28.99784 48.280232 34.53504
13050 1 28.99784 48.280232 47.316024
13051 1 36.004951 48.165282 28.304408
13052 1 36.004951 48.165282 41.085391
13053 1 36.004951 48.165282 53.865599
13054 1 35.793722 48.464026 21.646966
13055 1 35.793722 48.464026 34.42795
13056 1 35.793722 48.464026 47.208933
13057 4 28.132697 41.933986 27.802325
13058 4 28.132697 41.933986 40.583309
13059 4 28.132697 41.933986 53.363516
13060 4 30.247706 41.709139 28.749065
13061 4 30.247706 41.709139 41.530048
13062 4 30.247706 41.709139 54.311032
13063 4 29.226573 42.041988 20.880263
13064 4 29.226573 42.041988 33.661246
13065 4 29.226573 42.041988 46.44223
13066 4 28.426783 42.44305 23.025171
13067 4 28.426783 42.44305 35.806154
13068 4 28.426783 42.44305 48.586362
13069 4 36.195951 42.783478 29.00903
13070 4 36.195951 42.783478 41.789238
13071 4 36.195951 42.783478 54.570221
13072 4 35.633842 41.516503 27.14504
13073 4 35.633842 41.516503 39.925247
13074 4 35.633842 41.516503 52.706231
13075 4 36.135267 43.218014 21.586437
13076 4 36.135267 43.218014 34.366645
13077 4 36.135267 43.218014 47.147628
13078 4 34.502232 41.619452 21.465379
13079 4 34.502232 41.619452 34.245586
13080 4 34.502232 41.619452 47.02657
13081 4 29.432745 47.649271 28.838307
13082 4 29.432745 47.649271 41.618514
13083 4 29.432745 47.649271 54.399498
13084 4 28.652016 48.968037 27.117103
13085 4 28.652016 48.968037 39.898087
13086 4 28.652016 48.968037 52.678294
13087 4 28.639957 48.516448 22.99025
13088 4 28.639957 48.516448 35.770458
13089 4 28.639957 48.516448 48.551441
13090 4 29.457641 49.201095 20.911303
13091 4 29.457641 49.201095 33.692287
13092 4 29.457641 49.201095 46.47327
13093 4 34.894347 47.647376 28.651287
13094 4 34.894347 47.647376 41.43227
13095 4 34.894347 47.647376 54.213254
13096 4 37.048257 48.423604 29.082752
13097 4 37.048257 48.423604 41.862959
13098 4 37.048257 48.423604 54.643943
13099 4 37.090269 48.380024 21.657831
13100 4 37.090269 48.380024 34.438814
13101 4 37.090269 48.380024 47.219798
13102 4 34.959311 48.097702 22.605346
13103 4 34.959311 48.097702 35.38633
13104 4 34.959311 48.097702 48.167313
13105 2 28.333812 41.183653 27.129519
13106 2 28.333812 41.183653 39.910503
13107 2 28.333812 41.183653 52.69071
13108 2 30.403696 40.778802 28.319928
13109 2 30.403696 40.778802 41.100911
13110 2 30.403696 40.778802 53.881119
13111 2 28.904868 43.144749 29.268219
13112 2 28.904868 43.144749 42.048427
13113 2 28.904868 43.144749 54.82941
13114 2 27.299453 42.43926 27.831038
13115 2 27.299453 42.43926 40.612021
13116 2 27.299453 42.43926 53.393005
13117 2 31.044773 42.183465 29.305468
13118 2 31.044773 42.183465 42.086452
13119 2 31.044773 42.183465 54.867435
13120 2 28.418225 42.559894 20.516311
13121 2 28.418225 42.559894 33.297295
13122 2 28.418225 42.559894 46.078278
13123 2 27.928081 43.186435 22.586722
13124 2 27.928081 43.186435 35.367705
13125 2 27.928081 43.186435 48.147913
13126 2 30.058262 41.304919 22.60457
13127 2 30.058262 41.304919 35.385554
13128 2 30.058262 41.304919 48.165761
13129 2 29.698823 41.429343 20.235393
13130 2 29.698823 41.429343 33.016377
13131 2 29.698823 41.429343 45.79736
13132 2 28.79867 42.69316 23.916813
13133 2 28.79867 42.69316 36.697021
13134 2 28.79867 42.69316 49.478004
13135 2 36.613351 41.634611 26.793504
13136 2 36.613351 41.634611 39.574488
13137 2 36.613351 41.634611 52.354695
13138 2 35.048003 40.806592 26.749272
13139 2 35.048003 40.806592 39.530255
13140 2 35.048003 40.806592 52.310463
13141 2 34.333016 42.014198 28.698624
13142 2 34.333016 42.014198 41.479607
13143 2 34.333016 42.014198 54.260591
13144 2 37.167681 42.859901 28.786314
13145 2 37.167681 42.859901 41.567297
13146 2 37.167681 42.859901 54.347505
13147 2 35.856741 43.171908 29.899896
13148 2 35.856741 43.171908 42.680104
13149 2 35.856741 43.171908 55.461088
13150 2 35.573935 44.028348 21.482451
13151 2 35.573935 44.028348 34.262658
13152 2 35.573935 44.028348 47.043642
13153 2 34.143182 40.767433 21.866579
13154 2 34.143182 40.767433 34.646786
13155 2 34.143182 40.767433 47.42777
13156 2 36.440634 41.18618 21.999278
13157 2 36.440634 41.18618 34.779485
13158 2 36.440634 41.18618 47.560469
13159 2 33.735896 42.246624 21.250422
13160 2 33.735896 42.246624 34.03063
13161 2 33.735896 42.246624 46.811613
13162 2 37.038143 43.433387 21.9403
13163 2 37.038143 43.433387 34.721284
13164 2 37.038143 43.433387 47.501491
13165 2 29.337439 46.73725 29.210794
13166 2 29.337439 46.73725 41.991002
13167 2 29.337439 46.73725 54.771985
13168 2 30.255486 48.084438 29.095944
13169 2 30.255486 48.084438 41.876927
13170 2 30.255486 48.084438 54.657911
13171 2 29.320712 49.721527 27.152024
13172 2 29.320712 49.721527 39.933007
13173 2 29.320712 49.721527 52.713991
13174 2 27.848336 47.201471 27.789909
13175 2 27.848336 47.201471 40.570116
13176 2 27.848336 47.201471 53.3511
13177 2 27.856505 48.91372 26.430329
13178 2 27.856505 48.91372 39.211312
13179 2 27.856505 48.91372 51.992296
13180 2 28.20155 47.75222 23.408523
13181 2 28.20155 47.75222 36.189506
13182 2 28.20155 47.75222 48.97049
13183 2 28.61545 49.478996 23.402315
13184 2 28.61545 49.478996 36.182522
13185 2 28.61545 49.478996 48.963506
13186 2 29.581733 50.151642 21.300863
13187 2 29.581733 50.151642 34.081847
13188 2 29.581733 50.151642 46.86283
13189 2 28.848073 47.30821 21.282239
13190 2 28.848073 47.30821 34.062446
13191 2 28.848073 47.30821 46.84343
13192 2 29.757173 48.916878 20.00026
13193 2 29.757173 48.916878 32.780468
13194 2 29.757173 48.916878 45.561451
13195 2 37.692446 49.15183 28.716472
13196 2 37.692446 49.15183 41.497456
13197 2 37.692446 49.15183 54.278439
13198 2 37.145507 48.126123 30.079156
13199 2 37.145507 48.126123 42.86014
13200 2 37.145507 48.126123 55.641123
13201 2 34.172747 47.471161 27.95132
13202 2 34.172747 47.471161 40.731528
13203 2 34.172747 47.471161 53.512511
13204 2 34.703736 47.366317 29.688044
13205 2 34.703736 47.366317 42.469028
13206 2 34.703736 47.366317 55.250011
13207 2 36.150827 48.412235 27.270754
13208 2 36.150827 48.412235 40.051738
13209 2 36.150827 48.412235 52.831945
13210 2 37.603364 48.895404 20.84379
13211 2 37.603364 48.895404 33.624773
13212 2 37.603364 48.895404 46.405757
13213 2 34.065771 48.477289 22.669755
13214 2 34.065771 48.477289 35.450739
13215 2 34.065771 48.477289 48.231722
13216 2 37.720065 47.994752 22.372541
13217 2 37.720065 47.994752 35.153525
13218 2 37.720065 47.994752 47.934508
13219 2 35.294242 47.42316 23.292896
13220 2 35.294242 47.42316 36.07388
13221 2 35.294242 47.42316 48.854087
13222 2 35.310191 48.872666 20.728939
13223 2 35.310191 48.872666 33.509923
13224 2 35.310191 48.872666 46.290906
13225 6 32.206336 38.869496 31.317678
13226 6 32.206336 38.869496 44.098661
13227 6 32.206336 38.869496 56.878869
13228 6 32.4977 38.710967 25.020308
13229 6 32.4977 38.710967 37.801291
13230 6 32.4977 38.710967 50.582275
13231 6 38.824833 39.110133 31.590835
13232 6 38.824833 39.110133 44.371819
13233 6 38.824833 39.110133 57.152802
13234 6 38.639279 39.295822 24.837944
13235 6 38.639279 39.295822 37.618928
13236 6 38.639279 39.295822 50.399911
13237 6 26.237085 45.410274 25.23216
13238 6 26.237085 45.410274 38.013144
13239 6 26.237085 45.410274 50.794127
13240 6 25.951946 45.29785 31.638948
13241 6 25.951946 45.29785 44.419932
13242 6 25.951946 45.29785 57.200915
13243 6 32.685977 44.905631 25.178615
13244 6 32.685977 44.905631 37.959599
13245 6 32.685977 44.905631 50.740582
13246 6 32.589115 45.21448 31.562123
13247 6 32.589115 45.21448 44.343106
13248 6 32.589115 45.21448 57.12409
13249 3 28.961273 39.384245 31.4496
13250 3 28.961273 39.384245 44.229808
13251 3 28.961273 39.384245 57.010791
13252 3 31.979548 38.73623 28.388993
13253 3 31.979548 38.73623 41.169977
13254 3 31.979548 38.73623 53.95096
13255 3 32.455298 41.820299 25.023412
13256 3 32.455298 41.820299 37.804395
13257 3 32.455298 41.820299 50.585379
13258 3 28.956994 39.174556 25.031948
13259 3 28.956994 39.174556 37.812156
13260 3 28.956994 39.174556 50.593139
13261 3 32.181829 39.047606 21.872787
13262 3 32.181829 39.047606 34.652994
13263 3 32.181829 39.047606 47.433978
13264 3 38.648226 39.12466 27.942784
13265 3 38.648226 39.12466 40.722992
13266 3 38.648226 39.12466 53.503975
13267 3 32.647855 41.915038 31.453481
13268 3 32.647855 41.915038 44.234464
13269 3 32.647855 41.915038 57.014672
13270 3 35.690247 38.626333 31.101945
13271 3 35.690247 38.626333 43.882929
13272 3 35.690247 38.626333 56.663912
13273 3 38.285675 38.889076 21.799065
13274 3 38.285675 38.889076 34.580049
13275 3 38.285675 38.889076 47.360256
13276 3 38.530747 42.239677 25.13283
13277 3 38.530747 42.239677 37.913814
13278 3 38.530747 42.239677 50.694797
13279 3 38.790601 42.135464 32.040149
13280 3 38.790601 42.135464 44.821132
13281 3 38.790601 42.135464 57.60134
13282 3 35.557986 38.855601 24.920978
13283 3 35.557986 38.855601 37.701185
13284 3 35.557986 38.855601 50.482169
13285 3 29.261195 44.452779 25.951527
13286 3 29.261195 44.452779 38.732511
13287 3 29.261195 44.452779 51.513494
13288 3 26.05192 45.013002 28.488323
13289 3 26.05192 45.013002 41.269307
13290 3 26.05192 45.013002 54.049514
13291 3 32.307477 44.784365 28.545749
13292 3 32.307477 44.784365 41.326732
13293 3 32.307477 44.784365 54.10694
13294 3 26.339782 48.426762 31.879513
13295 3 26.339782 48.426762 44.659721
13296 3 26.339782 48.426762 57.440704
13297 3 29.182616 44.838682 31.680077
13298 3 29.182616 44.838682 44.461061
13299 3 29.182616 44.838682 57.242044
13300 3 32.325371 45.171531 22.093176
13301 3 32.325371 45.171531 34.874159
13302 3 32.325371 45.171531 47.655143
13303 3 26.401245 45.338904 22.078431
13304 3 26.401245 45.338904 34.858639
13305 3 26.401245 45.338904 47.639622
13306 3 32.493421 48.025069 25.381155
13307 3 32.493421 48.025069 38.162139
13308 3 32.493421 48.025069 50.943122
13309 3 32.568109 48.123597 31.015031
13310 3 32.568109 48.123597 43.796015
13311 3 32.568109 48.123597 56.576222
13312 3 35.992503 45.292166 24.650148
13313 3 35.992503 45.292166 37.431132
13314 3 35.992503 45.292166 50.212115
13315 3 38.636945 48.312443 25.102566
13316 3 38.636945 48.312443 37.883549
13317 3 38.636945 48.312443 50.664533
13318 3 35.641233 45.439327 31.704134
13319 3 35.641233 45.439327 44.484341
13320 3 35.641233 45.439327 57.265325
13321 1 3.140421 54.899327 28.679223
13322 1 3.140421 54.899327 41.460207
13323 1 3.140421 54.899327 54.24119
13324 1 3.375379 54.500792 22.174657
13325 1 3.375379 54.500792 34.955641
13326 1 3.375379 54.500792 47.736624
13327 1 9.404926 54.749639 28.280351
13328 1 9.404926 54.749639 41.061335
13329 1 9.404926 54.749639 53.841542
13330 1 9.787315 54.599952 21.736984
13331 1 9.787315 54.599952 34.517968
13332 1 9.787315 54.599952 47.298175
13333 1 2.705127 60.521768 27.858198
13334 1 2.705127 60.521768 40.639182
13335 1 2.705127 60.521768 53.419389
13336 1 3.064177 60.912092 21.754833
13337 1 3.064177 60.912092 34.53504
13338 1 3.064177 60.912092 47.316024
13339 1 10.071288 60.797142 28.304408
13340 1 10.071288 60.797142 41.085391
13341 1 10.071288 60.797142 53.865599
13342 1 9.860448 61.095886 21.646966
13343 1 9.860448 61.095886 34.42795
13344 1 9.860448 61.095886 47.208933
13345 4 2.199034 54.565846 27.802325
13346 4 2.199034 54.565846 40.583309
13347 4 2.199034 54.565846 53.363516
13348 4 4.314432 54.340999 28.749065
13349 4 4.314432 54.340999 41.530048
13350 4 4.314432 54.340999 54.311032
13351 4 3.293299 54.673848 20.880263
13352 4 3.293299 54.673848 33.661246
13353 4 3.293299 54.673848 46.44223
13354 4 2.493509 55.07491 23.025171
13355 4 2.493509 55.07491 35.806154
13356 4 2.493509 55.07491 48.586362
13357 4 10.262677 55.415338 29.00903
13358 4 10.262677 55.415338 41.789238
13359 4 10.262677 55.415338 54.570221
13360 4 9.700568 54.148363 27.14504
13361 4 9.700568 54.148363 39.925247
13362 4 9.700568 54.148363 52.706231
13363 4 10.201993 55.849874 21.586437
13364 4 10.201993 55.849874 34.366645
13365 4 10.201993 55.849874 47.147628
13366 4 8.568569 54.251312 21.465379
13367 4 8.568569 54.251312 34.245586
13368 4 8.568569 54.251312 47.02657
13369 4 3.499471 60.281131 28.838307
13370 4 3.499471 60.281131 41.618514
13371 4 3.499471 60.281131 54.399498
13372 4 2.718353 61.599897 27.117103
13373 4 2.718353 61.599897 39.898087
13374 4 2.718353 61.599897 52.678294
13375 4 2.706683 61.148308 22.99025
13376 4 2.706683 61.148308 35.770458
13377 4 2.706683 61.148308 48.551441
13378 4 3.523978 61.832955 20.911303
13379 4 3.523978 61.832955 33.692287
13380 4 3.523978 61.832955 46.47327
13381 4 8.960684 60.279236 28.651287
13382 4 8.960684 60.279236 41.43227
13383 4 8.960684 60.279236 54.213254
13384 4 11.114594 61.055464 29.082752
13385 4 11.114594 61.055464 41.862959
13386 4 11.114594 61.055464 54.643943
13387 4 11.156606 61.011884 21.657831
13388 4 11.156606 61.011884 34.438814
13389 4 11.156606 61.011884 47.219798
13390 4 9.025648 60.729562 22.605346
13391 4 9.025648 60.729562 35.38633
13392 4 9.025648 60.729562 48.167313
13393 2 2.400538 53.815513 27.129519
13394 2 2.400538 53.815513 39.910503
13395 2 2.400538 53.815513 52.69071
13396 2 4.470033 53.410662 28.319928
13397 2 4.470033 53.410662 41.100911
13398 2 4.470033 53.410662 53.881119
13399 2 2.971205 55.776609 29.268219
13400 2 2.971205 55.776609 42.048427
13401 2 2.971205 55.776609 54.82941
13402 2 1.366179 55.07112 27.831038
13403 2 1.366179 55.07112 40.612021
13404 2 1.366179 55.07112 53.393005
13405 2 5.111499 54.815325 29.305468
13406 2 5.111499 54.815325 42.086452
13407 2 5.111499 54.815325 54.867435
13408 2 2.484951 55.191754 20.516311
13409 2 2.484951 55.191754 33.297295
13410 2 2.484951 55.191754 46.078278
13411 2 1.994807 55.818295 22.586722
13412 2 1.994807 55.818295 35.367705
13413 2 1.994807 55.818295 48.147913
13414 2 4.124599 53.936779 22.60457
13415 2 4.124599 53.936779 35.385554
13416 2 4.124599 53.936779 48.165761
13417 2 3.76516 54.061203 20.235393
13418 2 3.76516 54.061203 33.016377
13419 2 3.76516 54.061203 45.79736
13420 2 2.865007 55.32502 23.916813
13421 2 2.865007 55.32502 36.697021
13422 2 2.865007 55.32502 49.478004
13423 2 10.679688 54.266471 26.793504
13424 2 10.679688 54.266471 39.574488
13425 2 10.679688 54.266471 52.354695
13426 2 9.11434 53.438452 26.749272
13427 2 9.11434 53.438452 39.530255
13428 2 9.11434 53.438452 52.310463
13429 2 8.399353 54.646058 28.698624
13430 2 8.399353 54.646058 41.479607
13431 2 8.399353 54.646058 54.260591
13432 2 11.234018 55.491761 28.786314
13433 2 11.234018 55.491761 41.567297
13434 2 11.234018 55.491761 54.347505
13435 2 9.923078 55.803768 29.899896
13436 2 9.923078 55.803768 42.680104
13437 2 9.923078 55.803768 55.461088
13438 2 9.640272 56.660208 21.482451
13439 2 9.640272 56.660208 34.262658
13440 2 9.640272 56.660208 47.043642
13441 2 8.209908 53.399293 21.866579
13442 2 8.209908 53.399293 34.646786
13443 2 8.209908 53.399293 47.42777
13444 2 10.506971 53.81804 21.999278
13445 2 10.506971 53.81804 34.779485
13446 2 10.506971 53.81804 47.560469
13447 2 7.802233 54.878484 21.250422
13448 2 7.802233 54.878484 34.03063
13449 2 7.802233 54.878484 46.811613
13450 2 11.104869 56.065247 21.9403
13451 2 11.104869 56.065247 34.721284
13452 2 11.104869 56.065247 47.501491
13453 2 3.404165 59.36911 29.210794
13454 2 3.404165 59.36911 41.991002
13455 2 3.404165 59.36911 54.771985
13456 2 4.321823 60.716298 29.095944
13457 2 4.321823 60.716298 41.876927
13458 2 4.321823 60.716298 54.657911
13459 2 3.387049 62.353387 27.152024
13460 2 3.387049 62.353387 39.933007
13461 2 3.387049 62.353387 52.713991
13462 2 1.914673 59.833331 27.789909
13463 2 1.914673 59.833331 40.570116
13464 2 1.914673 59.833331 53.3511
13465 2 1.923231 61.54558 26.430329
13466 2 1.923231 61.54558 39.211312
13467 2 1.923231 61.54558 51.992296
13468 2 2.268276 60.38408 23.408523
13469 2 2.268276 60.38408 36.189506
13470 2 2.268276 60.38408 48.97049
13471 2 2.681787 62.110856 23.402315
13472 2 2.681787 62.110856 36.182522
13473 2 2.681787 62.110856 48.963506
13474 2 3.648459 62.783502 21.300863
13475 2 3.648459 62.783502 34.081847
13476 2 3.648459 62.783502 46.86283
13477 2 2.91441 59.94007 21.282239
13478 2 2.91441 59.94007 34.062446
13479 2 2.91441 59.94007 46.84343
13480 2 3.82351 61.548738 20.00026
13481 2 3.82351 61.548738 32.780468
13482 2 3.82351 61.548738 45.561451
13483 2 11.758783 61.78369 28.716472
13484 2 11.758783 61.78369 41.497456
13485 2 11.758783 61.78369 54.278439
13486 2 11.211844 60.757983 30.079156
13487 2 11.211844 60.757983 42.86014
13488 2 11.211844 60.757983 55.641123
13489 2 8.239084 60.103021 27.95132
13490 2 8.239084 60.103021 40.731528
13491 2 8.239084 60.103021 53.512511
13492 2 8.770073 59.998177 29.688044
13493 2 8.770073 59.998177 42.469028
13494 2 8.770073 59.998177 55.250011
13495 2 10.217553 61.044095 27.270754
13496 2 10.217553 61.044095 40.051738
13497 2 10.217553 61.044095 52.831945
13498 2 11.669701 61.527264 20.84379
13499 2 11.669701 61.527264 33.624773
13500 2 11.669701 61.527264 46.405757
13501 2 8.132108 61.109149 22.669755
13502 2 8.132108 61.109149 35.450739
13503 2 8.132108 61.109149 48.231722
13504 2 11.786402 60.626612 22.372541
13505 2 11.786402 60.626612 35.153525
13506 2 11.786402 60.626612 47.934508
13507 2 9.360579 60.05502 23.292896
13508 2 9.360579 60.05502 36.07388
13509 2 9.360579 60.05502 48.854087
13510 2 9.376917 61.504526 20.728939
13511 2 9.376917 61.504526 33.509923
13512 2 9.376917 61.504526 46.290906
13513 6 6.273062 51.501356 31.317678
13514 6 6.273062 51.501356 44.098661
13515 6 6.273062 51.501356 56.878869
13516 6 6.564037 51.342827 25.020308
13517 6 6.564037 51.342827 37.801291
13518 6 6.564037 51.342827 50.582275
13519 6 12.891559 51.741993 31.590835
13520 6 12.891559 51.741993 44.371819
13521 6 12.891559 51.741993 57.152802
13522 6 12.705616 51.927682 24.837944
13523 6 12.705616 51.927682 37.618928
13524 6 12.705616 51.927682 50.399911
13525 6 0.303811 58.042134 25.23216
13526 6 0.303811 58.042134 38.013144
13527 6 0.303811 58.042134 50.794127
13528 6 0.018283 57.92971 31.638948
13529 6 0.018283 57.92971 44.419932
13530 6 0.018283 57.92971 57.200915
13531 6 6.752314 57.537491 25.178615
13532 6 6.752314 57.537491 37.959599
13533 6 6.752314 57.537491 50.740582
13534 6 6.655452 57.84634 31.562123
13535 6 6.655452 57.84634 44.343106
13536 6 6.655452 57.84634 57.12409
13537 3 3.027999 52.016105 31.4496
13538 3 3.027999 52.016105 44.229808
13539 3 3.027999 52.016105 57.010791
13540 3 6.046274 51.36809 28.388993
13541 3 6.046274 51.36809 41.169977
13542 3 6.046274 51.36809 53.95096
13543 3 6.522024 54.452159 25.023412
13544 3 6.522024 54.452159 37.804395
13545 3 6.522024 54.452159 50.585379
13546 3 3.02372 51.806416 25.031948
13547 3 3.02372 51.806416 37.812156
13548 3 3.02372 51.806416 50.593139
13549 3 6.248166 51.679466 21.872787
13550 3 6.248166 51.679466 34.652994
13551 3 6.248166 51.679466 47.433978
13552 3 12.714563 51.75652 27.942784
13553 3 12.714563 51.75652 40.722992
13554 3 12.714563 51.75652 53.503975
13555 3 6.714581 54.546898 31.453481
13556 3 6.714581 54.546898 44.234464
13557 3 6.714581 54.546898 57.014672
13558 3 9.756584 51.258193 31.101945
13559 3 9.756584 51.258193 43.882929
13560 3 9.756584 51.258193 56.663912
13561 3 12.352401 51.520936 21.799065
13562 3 12.352401 51.520936 34.580049
13563 3 12.352401 51.520936 47.360256
13564 3 12.597473 54.871537 25.13283
13565 3 12.597473 54.871537 37.913814
13566 3 12.597473 54.871537 50.694797
13567 3 12.856938 54.767324 32.040149
13568 3 12.856938 54.767324 44.821132
13569 3 12.856938 54.767324 57.60134
13570 3 9.624712 51.487461 24.920978
13571 3 9.624712 51.487461 37.701185
13572 3 9.624712 51.487461 50.482169
13573 3 3.327921 57.084639 25.951527
13574 3 3.327921 57.084639 38.732511
13575 3 3.327921 57.084639 51.513494
13576 3 0.118646 57.644862 28.488323
13577 3 0.118646 57.644862 41.269307
13578 3 0.118646 57.644862 54.049514
13579 3 6.374203 57.416225 28.545749
13580 3 6.374203 57.416225 41.326732
13581 3 6.374203 57.416225 54.10694
13582 3 0.406508 61.058622 31.879513
13583 3 0.406508 61.058622 44.659721
13584 3 0.406508 61.058622 57.440704
13585 3 3.249342 57.470542 31.680077
13586 3 3.249342 57.470542 44.461061
13587 3 3.249342 57.470542 57.242044
13588 3 6.391708 57.803391 22.093176
13589 3 6.391708 57.803391 34.874159
13590 3 6.391708 57.803391 47.655143
13591 3 0.467582 57.970764 22.078431
13592 3 0.467582 57.970764 34.858639
13593 3 0.467582 57.970764 47.639622
13594 3 6.559758 60.656929 25.381155
13595 3 6.559758 60.656929 38.162139
13596 3 6.559758 60.656929 50.943122
13597 3 6.634446 60.755457 31.015031
13598 3 6.634446 60.755457 43.796015
13599 3 6.634446 60.755457 56.576222
13600 3 10.05884 57.924026 24.650148
13601 3 10.05884 57.924026 37.431132
13602 3 10.05884 57.924026 50.212115
13603 3 12.703282 60.944303 25.102566
13604 3 12.703282 60.944303 37.883549
13605 3 12.703282 60.944303 50.664533
13606 3 9.707959 58.071187 31.704134
13607 3 9.707959 58.071187 44.484341
13608 3 9.707959 58.071187 57.265325
13609 1 16.107058 54.899327 28.679223
13610 1 16.107058 54.899327 41.460207
13611 1 16.107058 54.899327 54.24119
13612 1 16.342016 54.500792 22.174657
13613 1 16.342016 54.500792 34.955641
13614 1 16.342016 54.500792 47.736624
13615 1 22.371952 54.749639 28.280351
13616 1 22.371952 54.749639 41.061335
13617 1 22.371952 54.749639 53.841542
13618 1 22.753952 54.599952 21.736984
13619 1 22.753952 54.599952 34.517968
13620 1 22.753952 54.599952 47.298175
13621 1 15.671764 60.521768 27.858198
13622 1 15.671764 60.521768 40.639182
13623 1 15.671764 60.521768 53.419389
13624 1 16.030814 60.912092 21.754833
13625 1 16.030814 60.912092 34.53504
13626 1 16.030814 60.912092 47.316024
13627 1 23.038314 60.797142 28.304408
13628 1 23.038314 60.797142 41.085391
13629 1 23.038314 60.797142 53.865599
13630 1 22.827085 61.095886 21.646966
13631 1 22.827085 61.095886 34.42795
13632 1 22.827085 61.095886 47.208933
13633 4 15.165671 54.565846 27.802325
13634 4 15.165671 54.565846 40.583309
13635 4 15.165671 54.565846 53.363516
13636 4 17.281069 54.340999 28.749065
13637 4 17.281069 54.340999 41.530048
13638 4 17.281069 54.340999 54.311032
13639 4 16.259936 54.673848 20.880263
13640 4 16.259936 54.673848 33.661246
13641 4 16.259936 54.673848 46.44223
13642 4 15.460146 55.07491 23.025171
13643 4 15.460146 55.07491 35.806154
13644 4 15.460146 55.07491 48.586362
13645 4 23.229314 55.415338 29.00903
13646 4 23.229314 55.415338 41.789238
13647 4 23.229314 55.415338 54.570221
13648 4 22.667205 54.148363 27.14504
13649 4 22.667205 54.148363 39.925247
13650 4 22.667205 54.148363 52.706231
13651 4 23.16863 55.849874 21.586437
13652 4 23.16863 55.849874 34.366645
13653 4 23.16863 55.849874 47.147628
13654 4 21.535595 54.251312 21.465379
13655 4 21.535595 54.251312 34.245586
13656 4 21.535595 54.251312 47.02657
13657 4 16.466108 60.281131 28.838307
13658 4 16.466108 60.281131 41.618514
13659 4 16.466108 60.281131 54.399498
13660 4 15.685379 61.599897 27.117103
13661 4 15.685379 61.599897 39.898087
13662 4 15.685379 61.599897 52.678294
13663 4 15.67332 61.148308 22.99025
13664 4 15.67332 61.148308 35.770458
13665 4 15.67332 61.148308 48.551441
13666 4 16.491004 61.832955 20.911303
13667 4 16.491004 61.832955 33.692287
13668 4 16.491004 61.832955 46.47327
13669 4 21.92771 60.279236 28.651287
13670 4 21.92771 60.279236 41.43227
13671 4 21.92771 60.279236 54.213254
13672 4 24.081231 61.055464 29.082752
13673 4 24.081231 61.055464 41.862959
13674 4 24.081231 61.055464 54.643943
13675 4 24.123632 61.011884 21.657831
13676 4 24.123632 61.011884 34.438814
13677 4 24.123632 61.011884 47.219798
13678 4 21.992285 60.729562 22.605346
13679 4 21.992285 60.729562 35.38633
13680 4 21.992285 60.729562 48.167313
13681 2 15.367175 53.815513 27.129519
13682 2 15.367175 53.815513 39.910503
13683 2 15.367175 53.815513 52.69071
13684 2 17.43667 53.410662 28.319928
13685 2 17.43667 53.410662 41.100911
13686 2 17.43667 53.410662 53.881119
13687 2 15.937842 55.776609 29.268219
13688 2 15.937842 55.776609 42.048427
13689 2 15.937842 55.776609 54.82941
13690 2 14.332816 55.07112 27.831038
13691 2 14.332816 55.07112 40.612021
13692 2 14.332816 55.07112 53.393005
13693 2 18.078136 54.815325 29.305468
13694 2 18.078136 54.815325 42.086452
13695 2 18.078136 54.815325 54.867435
13696 2 15.451588 55.191754 20.516311
13697 2 15.451588 55.191754 33.297295
13698 2 15.451588 55.191754 46.078278
13699 2 14.961444 55.818295 22.586722
13700 2 14.961444 55.818295 35.367705
13701 2 14.961444 55.818295 48.147913
13702 2 17.091625 53.936779 22.60457
13703 2 17.091625 53.936779 35.385554
13704 2 17.091625 53.936779 48.165761
13705 2 16.731797 54.061203 20.235393
13706 2 16.731797 54.061203 33.016377
13707 2 16.731797 54.061203 45.79736
13708 2 15.832033 55.32502 23.916813
13709 2 15.832033 55.32502 36.697021
13710 2 15.832033 55.32502 49.478004
13711 2 23.646714 54.266471 26.793504
13712 2 23.646714 54.266471 39.574488
13713 2 23.646714 54.266471 52.354695
13714 2 22.081366 53.438452 26.749272
13715 2 22.081366 53.438452 39.530255
13716 2 22.081366 53.438452 52.310463
13717 2 21.36599 54.646058 28.698624
13718 2 21.36599 54.646058 41.479607
13719 2 21.36599 54.646058 54.260591
13720 2 24.200655 55.491761 28.786314
13721 2 24.200655 55.491761 41.567297
13722 2 24.200655 55.491761 54.347505
13723 2 22.890104 55.803768 29.899896
13724 2 22.890104 55.803768 42.680104
13725 2 22.890104 55.803768 55.461088
13726 2 22.607298 56.660208 21.482451
13727 2 22.607298 56.660208 34.262658
13728 2 22.607298 56.660208 47.043642
13729 2 21.176545 53.399293 21.866579
13730 2 21.176545 53.399293 34.646786
13731 2 21.176545 53.399293 47.42777
13732 2 23.473997 53.81804 21.999278
13733 2 23.473997 53.81804 34.779485
13734 2 23.473997 53.81804 47.560469
13735 2 20.769259 54.878484 21.250422
13736 2 20.769259 54.878484 34.03063
13737 2 20.769259 54.878484 46.811613
13738 2 24.071506 56.065247 21.9403
13739 2 24.071506 56.065247 34.721284
13740 2 24.071506 56.065247 47.501491
13741 2 16.370802 59.36911 29.210794
13742 2 16.370802 59.36911 41.991002
13743 2 16.370802 59.36911 54.771985
13744 2 17.28846 60.716298 29.095944
13745 2 17.28846 60.716298 41.876927
13746 2 17.28846 60.716298 54.657911
13747 2 16.353686 62.353387 27.152024
13748 2 16.353686 62.353387 39.933007
13749 2 16.353686 62.353387 52.713991
13750 2 14.881699 59.833331 27.789909
13751 2 14.881699 59.833331 40.570116
13752 2 14.881699 59.833331 53.3511
13753 2 14.889868 61.54558 26.430329
13754 2 14.889868 61.54558 39.211312
13755 2 14.889868 61.54558 51.992296
13756 2 15.234913 60.38408 23.408523
13757 2 15.234913 60.38408 36.189506
13758 2 15.234913 60.38408 48.97049
13759 2 15.648813 62.110856 23.402315
13760 2 15.648813 62.110856 36.182522
13761 2 15.648813 62.110856 48.963506
13762 2 16.615096 62.783502 21.300863
13763 2 16.615096 62.783502 34.081847
13764 2 16.615096 62.783502 46.86283
13765 2 15.881436 59.94007 21.282239
13766 2 15.881436 59.94007 34.062446
13767 2 15.881436 59.94007 46.84343
13768 2 16.790536 61.548738 20.00026
13769 2 16.790536 61.548738 32.780468
13770 2 16.790536 61.548738 45.561451
13771 2 24.725809 61.78369 28.716472
13772 2 24.725809 61.78369 41.497456
13773 2 24.725809 61.78369 54.278439
13774 2 24.17887 60.757983 30.079156
13775 2 24.17887 60.757983 42.86014
13776 2 24.17887 60.757983 55.641123
13777 2 21.205721 60.103021 27.95132
13778 2 21.205721 60.103021 40.731528
13779 2 21.205721 60.103021 53.512511
13780 2 21.737099 59.998177 29.688044
13781 2 21.737099 59.998177 42.469028
13782 2 21.737099 59.998177 55.250011
13783 2 23.18419 61.044095 27.270754
13784 2 23.18419 61.044095 40.051738
13785 2 23.18419 61.044095 52.831945
13786 2 24.636727 61.527264 20.84379
13787 2 24.636727 61.527264 33.624773
13788 2 24.636727 61.527264 46.405757
13789 2 21.099134 61.109149 22.669755
13790 2 21.099134 61.109149 35.450739
13791 2 21.099134 61.109149 48.231722
13792 2 24.753428 60.626612 22.372541
13793 2 24.753428 60.626612 35.153525
13794 2 24.753428 60.626612 47.934508
13795 2 22.327605 60.05502 23.292896
13796 2 22.327605 60.05502 36.07388
13797 2 22.327605 60.05502 48.854087
13798 2 22.343554 61.504526 20.728939
13799 2 22.343554 61.504526 33.509923
13800 2 22.343554 61.504526 46.290906
13801 6 19.239699 51.501356 31.317678
13802 6 19.239699 51.501356 44.098661
13803 6 19.239699 51.501356 56.878869
13804 6 19.531063 51.342827 25.020308
13805 6 19.531063 51.342827 37.801291
13806 6 19.531063 51.342827 50.582275
13807 6 25.858196 51.741993 31.590835
13808 6 25.858196 51.741993 44.371819
13809 6 25.858196 51.741993 57.152802
13810 6 25.672642 51.927682 24.837944
13811 6 25.672642 51.927682 37.618928
13812 6 25.672642 51.927682 50.399911
13813 6 13.270448 58.042134 25.23216
13814 6 13.270448 58.042134 38.013144
13815 6 13.270448 58.042134 50.794127
13816 6 12.98492 57.92971 31.638948
13817 6 12.98492 57.92971 44.419932
13818 6 12.98492 57.92971 57.200915
13819 6 19.718951 57.537491 25.178615
13820 6 19.718951 57.537491 37.959599
13821 6 19.718951 57.537491 50.740582
13822 6 19.622478 57.84634 31.562123
13823 6 19.622478 57.84634 44.343106
13824 6 19.622478 57.84634 57.12409
13825 3 15.994636 52.016105 31.4496
13826 3 15.994636 52.016105 44.229808
13827 3 15.994636 52.016105 57.010791
13828 3 19.012911 51.36809 28.388993
13829 3 19.012911 51.36809 41.169977
13830 3 19.012911 51.36809 53.95096
13831 3 19.488661 54.452159 25.023412
13832 3 19.488661 54.452159 37.804395
13833 3 19.488661 54.452159 50.585379
13834 3 15.990357 51.806416 25.031948
13835 3 15.990357 51.806416 37.812156
13836 3 15.990357 51.806416 50.593139
13837 3 19.215192 51.679466 21.872787
13838 3 19.215192 51.679466 34.652994
13839 3 19.215192 51.679466 47.433978
13840 3 25.6812 51.75652 27.942784
13841 3 25.6812 51.75652 40.722992
13842 3 25.6812 51.75652 53.503975
13843 3 19.681218 54.546898 31.453481
13844 3 19.681218 54.546898 44.234464
13845 3 19.681218 54.546898 57.014672
13846 3 22.72361 51.258193 31.101945
13847 3 22.72361 51.258193 43.882929
13848 3 22.72361 51.258193 56.663912
13849 3 25.319038 51.520936 21.799065
13850 3 25.319038 51.520936 34.580049
13851 3 25.319038 51.520936 47.360256
13852 3 25.56411 54.871537 25.13283
13853 3 25.56411 54.871537 37.913814
13854 3 25.56411 54.871537 50.694797
13855 3 25.823964 54.767324 32.040149
13856 3 25.823964 54.767324 44.821132
13857 3 25.823964 54.767324 57.60134
13858 3 22.591349 51.487461 24.920978
13859 3 22.591349 51.487461 37.701185
13860 3 22.591349 51.487461 50.482169
13861 3 16.294558 57.084639 25.951527
13862 3 16.294558 57.084639 38.732511
13863 3 16.294558 57.084639 51.513494
13864 3 13.085283 57.644862 28.488323
13865 3 13.085283 57.644862 41.269307
13866 3 13.085283 57.644862 54.049514
13867 3 19.34084 57.416225 28.545749
13868 3 19.34084 57.416225 41.326732
13869 3 19.34084 57.416225 54.10694
13870 3 13.373145 61.058622 31.879513
13871 3 13.373145 61.058622 44.659721
13872 3 13.373145 61.058622 57.440704
13873 3 16.215979 57.470542 31.680077
13874 3 16.215979 57.470542 44.461061
13875 3 16.215979 57.470542 57.242044
13876 3 19.358345 57.803391 22.093176
13877 3 19.358345 57.803391 34.874159
13878 3 19.358345 57.803391 47.655143
13879 3 13.434608 57.970764 22.078431
13880 3 13.434608 57.970764 34.858639
13881 3 13.434608 57.970764 47.639622
13882 3 19.526784 60.656929 25.381155
13883 3 19.526784 60.656929 38.162139
13884 3 19.526784 60.656929 50.943122
13885 3 19.601472 60.755457 31.015031
13886 3 19.601472 60.755457 43.796015
13887 3 19.601472 60.755457 56.576222
13888 3 23.025477 57.924026 24.650148
13889 3 23.025477 57.924026 37.431132
13890 3 23.025477 57.924026 50.212115
13891 3 25.670308 60.944303 25.102566
13892 3 25.670308 60.944303 37.883549
13893 3 25.670308 60.944303 50.664533
13894 3 22.674596 58.071187 31.704134
13895 3 22.674596 58.071187 44.484341
13896 3 22.674596 58.071187 57.265325
13897 1 29.074084 54.899327 28.679223
13898 1 29.074084 54.899327 41.460207
13899 1 29.074084 54.899327 54.24119
13900 1 29.308653 54.500792 22.174657
13901 1 29.308653 54.500792 34.955641
13902 1 29.308653 54.500792 47.736624
13903 1 35.338589 54.749639 28.280351
13904 1 35.338589 54.749639 41.061335
13905 1 35.338589 54.749639 53.841542
13906 1 35.720978 54.599952 21.736984
13907 1 35.720978 54.599952 34.517968
13908 1 35.720978 54.599952 47.298175
13909 1 28.63879 60.521768 27.858198
13910 1 28.63879 60.521768 40.639182
13911 1 28.63879 60.521768 53.419389
13912 1 28.99784 60.912092 21.754833
13913 1 28.99784 60.912092 34.53504
13914 1 28.99784 60.912092 47.316024
13915 1 36.004951 60.797142 28.304408
13916 1 36.004951 60.797142 41.085391
13917 1 36.004951 60.797142 53.865599
13918 1 35.793722 61.095886 21.646966
13919 1 35.793722 61.095886 34.42795
13920 1 35.793722 61.095886 47.208933
13921 4 28.132697 54.565846 27.802325
13922 4 28.132697 54.565846 40.583309
13923 4 28.132697 54.565846 53.363516
13924 4 30.247706 54.340999 28.749065
13925 4 30.247706 54.340999 41.530048
13926 4 30.247706 54.340999 54.311032
13927 4 29.226573 54.673848 20.880263
13928 4 29.226573 54.673848 33.661246
13929 4 29.226573 54.673848 46.44223
13930 4 28.426783 55.07491 23.025171
13931 4 28.426783 55.07491 35.806154
13932 4 28.426783 55.07491 48.586362
13933 4 36.195951 55.415338 29.00903
13934 4 36.195951 55.415338 41.789238
13935 4 36.195951 55.415338 54.570221
13936 4 35.633842 54.148363 27.14504
13937 4 35.633842 54.148363 39.925247
13938 4 35.633842 54.148363 52.706231
13939 4 36.135267 55.849874 21.586437
13940 4 36.135267 55.849874 34.366645
13941 4 36.135267 55.849874 47.147628
13942 4 34.502232 54.251312 21.465379
13943 4 34.502232 54.251312 34.245586
13944 4 34.502232 54.251312 47.02657
13945 4 29.432745 60.281131 28.838307
13946 4 29.432745 60.281131 41.618514
13947 4 29.432745 60.281131 54.399498
13948 4 28.652016 61.599897 27.117103
13949 4 28.652016 61.599897 39.898087
13950 4 28.652016 61.599897 52.678294
13951 4 28.639957 61.148308 22.99025
13952 4 28.639957 61.148308 35.770458
13953 4 28.639957 61.148308 48.551441
13954 4 29.457641 61.832955 20.911303
13955 4 29.457641 61.832955 33.692287
13956 4 29.457641 61.832955 46.47327
13957 4 34.894347 60.279236 28.651287
13958 4 34.894347 60.279236 41.43227
13959 4 34.894347 60.279236 54.213254
13960 4 37.048257 61.055464 29.082752
13961 4 37.048257 61.055464 41.862959
13962 4 37.048257 61.055464 54.643943
13963 4 37.090269 61.011884 21.657831
13964 4 37.090269 61.011884 34.438814
13965 4 37.090269 61.011884 47.219798
13966 4 34.959311 60.729562 22.605346
13967 4 34.959311 60.729562 35.38633
13968 4 34.959311 60.729562 48.167313
13969 2 28.333812 53.815513 27.129519
13970 2 28.333812 53.815513 39.910503
13971 2 28.333812 53.815513 52.69071
13972 2 30.403696 53.410662 28.319928
13973 2 30.403696 53.410662 41.100911
13974 2 30.403696 53.410662 53.881119
13975 2 28.904868 55.776609 29.268219
13976 2 28.904868 55.776609 42.048427
13977 2 28.904868 55.776609 54.82941
13978 2 27.299453 55.07112 27.831038
13979 2 27.299453 55.07112 40.612021
13980 2 27.299453 55.07112 53.393005
13981 2 31.044773 54.815325 29.305468
13982 2 31.044773 54.815325 42.086452
13983 2 31.044773 54.815325 54.867435
13984 2 28.418225 55.191754 20.516311
13985 2 28.418225 55.191754 33.297295
13986 2 28.418225 55.191754 46.078278
13987 2 27.928081 55.818295 22.586722
13988 2 27.928081 55.818295 35.367705
13989 2 27.928081 55.818295 48.147913
13990 2 30.058262 53.936779 22.60457
13991 2 30.058262 53.936779 35.385554
13992 2 30.058262 53.936779 48.165761
13993 2 29.698823 54.061203 20.235393
13994 2 29.698823 54.061203 33.016377
13995 2 29.698823 54.061203 45.79736
13996 2 28.79867 55.32502 23.916813
13997 2 28.79867 55.32502 36.697021
13998 2 28.79867 55.32502 49.478004
13999 2 36.613351 54.266471 26.793504
14000 2 36.613351 54.266471 39.574488
14001 2 36.613351 54.266471 52.354695
14002 2 35.048003 53.438452 26.749272
14003 2 35.048003 53.438452 39.530255
14004 2 35.048003 53.438452 52.310463
14005 2 34.333016 54.646058 28.698624
14006 2 34.333016 54.646058 41.479607
14007 2 34.333016 54.646058 54.260591
14008 2 37.167681 55.491761 28.786314
14009 2 37.167681 55.491761 41.567297
14010 2 37.167681 55.491761 54.347505
14011 2 35.856741 55.803768 29.899896
14012 2 35.856741 55.803768 42.680104
14013 2 35.856741 55.803768 55.461088
14014 2 35.573935 56.660208 21.482451
14015 2 35.573935 56.660208 34.262658
14016 2 35.573935 56.660208 47.043642
14017 2 34.143182 53.399293 21.866579
14018 2 34.143182 53.399293 34.646786
14019 2 34.143182 53.399293 47.42777
14020 2 36.440634 53.81804 21.999278
14021 2 36.440634 53.81804 34.779485
14022 2 36.440634 53.81804 47.560469
14023 2 33.735896 54.878484 21.250422
14024 2 33.735896 54.878484 34.03063
14025 2 33.735896 54.878484 46.811613
14026 2 37.038143 56.065247 21.9403
14027 2 37.038143 56.065247 34.721284
14028 2 37.038143 56.065247 47.501491
14029 2 29.337439 59.36911 29.210794
14030 2 29.337439 59.36911 41.991002
14031 2 29.337439 59.36911 54.771985
14032 2 30.255486 60.716298 29.095944
14033 2 30.255486 60.716298 41.876927
14034 2 30.255486 60.716298 54.657911
14035 2 29.320712 62.353387 27.152024
14036 2 29.320712 62.353387 39.933007
14037 2 29.320712 62.353387 52.713991
14038 2 27.848336 59.833331 27.789909
14039 2 27.848336 59.833331 40.570116
14040 2 27.848336 59.833331 53.3511
14041 2 27.856505 61.54558 26.430329
14042 2 27.856505 61.54558 39.211312
14043 2 27.856505 61.54558 51.992296
14044 2 28.20155 60.38408 23.408523
14045 2 28.20155 60.38408 36.189506
14046 2 28.20155 60.38408 48.97049
14047 2 28.61545 62.110856 23.402315
14048 2 28.61545 62.110856 36.182522
14049 2 28.61545 62.110856 48.963506
14050 2 29.581733 62.783502 21.300863
14051 2 29.581733 62.783502 34.081847
14052 2 29.581733 62.783502 46.86283
14053 2 28.848073 59.94007 21.282239
14054 2 28.848073 59.94007 34.062446
14055 2 28.848073 59.94007 46.84343
14056 2 29.757173 61.548738 20.00026
14057 2 29.757173 61.548738 32.780468
14058 2 29.757173 61.548738 45.561451
14059 2 37.692446 61.78369 28.716472
14060 2 37.692446 61.78369 41.497456
14061 2 37.692446 61.78369 54.278439
14062 2 37.145507 60.757983 30.079156
14063 2 37.145507 60.757983 42.86014
14064 2 37.145507 60.757983 55.641123
14065 2 34.172747 60.103021 27.95132
14066 2 34.172747 60.103021 40.731528
14067 2 34.172747 60.103021 53.512511
14068 2 34.703736 59.998177 29.688044
14069 2 34.703736 59.998177 42.469028
14070 2 34.703736 59.998177 55.250011
14071 2 36.150827 61.044095 27.270754
14072 2 36.150827 61.044095 40.051738
14073 2 36.150827 61.044095 52.831945
14074 2 37.603364 61.527264 20.84379
14075 2 37.603364 61.527264 33.624773
14076 2 37.603364 61.527264 46.405757
14077 2 34.065771 61.109149 22.669755
14078 2 34.065771 61.109149 35.450739
14079 2 34.065771 61.109149 48.231722
14080 2 37.720065 60.626612 22.372541
14081 2 37.720065 60.626612 35.153525
14082 2 37.720065 60.626612 47.934508
14083 2 35.294242 60.05502 23.292896
14084 2 35.294242 60.05502 36.07388
14085 2 35.294242 60.05502 48.854087
14086 2 35.310191 61.504526 20.728939
14087 2 35.310191 61.504526 33.509923
14088 2 35.310191 61.504526 46.290906
14089 6 32.206336 51.501356 31.317678
14090 6 32.206336 51.501356 44.098661
14091 6 32.206336 51.501356 56.878869
14092 6 32.4977 51.342827 25.020308
14093 6 32.4977 51.342827 37.801291
14094 6 32.4977 51.342827 50.582275
14095 6 38.824833 51.741993 31.590835
14096 6 38.824833 51.741993 44.371819
14097 6 38.824833 51.741993 57.152802
14098 6 38.639279 51.927682 24.837944
14099 6 38.639279 51.927682 37.618928
14100 6 38.639279 51.927682 50.399911
14101 6 26.237085 58.042134 25.23216
14102 6 26.237085 58.042134 38.013144
14103 6 26.237085 58.042134 50.794127
14104 6 25.951946 57.92971 31.638948
14105 6 25.951946 57.92971 44.419932
14106 6 25.951946 57.92971 57.200915
14107 6 32.685977 57.537491 25.178615
14108 6 32.685977 57.537491 37.959599
14109 6 32.685977 57.537491 50.740582
14110 6 32.589115 57.84634 31.562123
14111 6 32.589115 57.84634 44.343106
14112 6 32.589115 57.84634 57.12409
14113 3 28.961273 52.016105 31.4496
14114 3 28.961273 52.016105 44.229808
14115 3 28.961273 52.016105 57.010791
14116 3 31.979548 51.36809 28.388993
14117 3 31.979548 51.36809 41.169977
14118 3 31.979548 51.36809 53.95096
14119 3 32.455298 54.452159 25.023412
14120 3 32.455298 54.452159 37.804395
14121 3 32.455298 54.452159 50.585379
14122 3 28.956994 51.806416 25.031948
14123 3 28.956994 51.806416 37.812156
14124 3 28.956994 51.806416 50.593139
14125 3 32.181829 51.679466 21.872787
14126 3 32.181829 51.679466 34.652994
14127 3 32.181829 51.679466 47.433978
14128 3 38.648226 51.75652 27.942784
14129 3 38.648226 51.75652 40.722992
14130 3 38.648226 51.75652 53.503975
14131 3 32.647855 54.546898 31.453481
14132 3 32.647855 54.546898 44.234464
14133 3 32.647855 54.546898 57.014672
14134 3 35.690247 51.258193 31.101945
14135 3 35.690247 51.258193 43.882929
14136 3 35.690247 51.258193 56.663912
14137 3 38.285675 51.520936 21.799065
14138 3 38.285675 51.520936 34.580049
14139 3 38.285675 51.520936 47.360256
14140 3 38.530747 54.871537 25.13283
14141 3 38.530747 54.871537 37.913814
14142 3 38.530747 54.871537 50.694797
14143 3 38.790601 54.767324 32.040149
14144 3 38.790601 54.767324 44.821132
14145 3 38.790601 54.767324 57.60134
14146 3 35.557986 51.487461 24.920978
14147 3 35.557986 51.487461 37.701185
14148 3 35.557986 51.487461 50.482169
14149 3 29.261195 57.084639 25.951527
14150 3 29.261195 57.084639 38.732511
14151 3 29.261195 57.084639 51.513494
14152 3 26.05192 57.644862 28.488323
14153 3 26.05192 57.644862 41.269307
14154 3 26.05192 57.644862 54.049514
14155 3 32.307477 57.416225 28.545749
14156 3 32.307477 57.416225 41.326732
14157 3 32.307477 57.416225 54.10694
14158 3 26.339782 61.058622 31.879513
14159 3 26.339782 61.058622 44.659721
14160 3 26.339782 61.058622 57.440704
14161 3 29.182616 57.470542 31.680077
14162 3 29.182616 57.470542 44.461061
14163 3 29.182616 57.470542 57.242044
14164 3 32.325371 57.803391 22.093176
14165 3 32.325371 57.803391 34.874159
14166 3 32.325371 57.803391 47.655143
14167 3 26.401245 57.970764 22.078431
14168 3 26.401245 57.970764 34.858639
14169 3 26.401245 57.970764 47.639622
14170 3 32.493421 60.656929 25.381155
14171 3 32.493421 60.656929 38.162139
14172 3 32.493421 60.656929 50.943122
14173 3 32.568109 60.755457 31.015031
14174 3 32.568109 60.755457 43.796015
14175 3 32.568109 60.755457 56.576222
14176 3 35.992503 57.924026 24.650148
14177 3 35.992503 57.924026 37.431132
14178 3 35.992503 57.924026 50.212115
14179 3 38.636945 60.944303 25.102566
14180 3 38.636945 60.944303 37.883549
14181 3 38.636945 60.944303 50.664533
14182 3 35.641233 58.071187 31.704134
14183 3 35.641233 58.071187 44.484341
14184 3 35.641233 58.071187 57.265325
