# LAMMPS data file written by OVITO Basic 3.10.6

12942 atoms
6 atom types

0.0 36.4134 xlo xhi
0.0 62.2790769461 ylo yhi
0.0 77.1721 zlo zhi
-0.5262170941 0.0 0.0 xy xz yz

Atom Type Labels

1 C
2 H
3 I
4 N
5 O
6 Pb

Masses

1 12.0107  # C
2 1.00794  # H
3 126.90447  # I
4 14.0067  # N
5 15.9994  # O
6 207.2  # Pb

Atoms  # atomic

1 2 31.332909 25.081031 2.637045
2 2 30.467512 24.873596 1.287989
3 5 30.611999 25.473874 2.09006
4 2 9.312205 14.469001 3.103204
5 2 9.781558 13.89439 1.667437
6 5 9.624203 13.656564 2.638625
7 2 18.47639 2.964197 8.261471
8 2 19.814033 3.819255 7.959012
9 5 18.804715 3.814024 7.883017
10 2 24.738042 15.055431 15.444432
11 2 23.894917 14.559356 16.730879
12 5 23.843533 14.763471 15.740816
13 2 25.705653 14.103988 4.19272
14 2 25.228652 15.036851 5.423221
15 5 25.511858 15.036044 4.451459
16 2 18.748247 54.275578 4.716484
17 2 19.143633 53.880257 3.200144
18 5 18.77964 53.526134 4.07572
19 2 8.36598 23.472198 13.738745
20 2 7.848037 21.941363 13.751906
21 5 8.542636 22.572949 13.373542
22 2 4.825719 7.614475 17.363991
23 2 5.073501 7.300423 15.798146
24 5 5.311085 7.920985 16.56168
25 2 31.468625 15.395685 8.547926
26 2 32.543666 15.379182 9.754537
27 5 32.337419 15.760599 8.839928
28 2 10.798721 26.386432 16.077344
29 2 11.355456 26.254634 14.565864
30 5 10.875261 25.768187 15.312396
31 2 6.949716 22.583513 5.571278
32 2 6.323002 22.785501 4.095363
33 5 6.437106 22.131778 4.859662
34 2 11.387043 49.665591 5.393683
35 2 11.774507 49.979379 3.856379
36 5 11.011022 49.922119 4.518451
37 2 20.563984 50.859367 7.723903
38 2 22.006754 50.141516 7.846381
39 5 21.472389 50.964739 8.093939
40 2 31.176927 51.010079 4.704392
41 2 31.694727 50.547179 3.24511
42 5 31.70967 51.296755 3.92514
43 2 27.386924 23.236863 7.7464
44 2 28.095808 22.365078 6.584776
45 5 27.667572 22.3235 7.500971
46 2 7.386248 40.839198 4.266876
47 2 6.69175 40.234625 5.595055
48 5 6.51515 40.66222 4.694775
49 2 20.931419 35.880684 16.881756
50 2 21.123835 37.06461 15.798616
51 5 21.507914 36.642048 16.634351
52 2 11.290672 35.35849 18.08217
53 2 11.208272 36.801573 17.359248
54 5 11.189798 35.801172 17.206334
55 2 17.284299 53.603986 2.06508
56 2 16.485195 52.669226 1.016484
57 5 16.558672 52.939975 1.989019
58 2 21.389837 60.294445 3.081312
59 2 20.591277 61.284931 2.084751
60 5 21.024024 61.206697 2.996418
61 2 10.098632 5.106381 3.284451
62 2 9.02154 3.914988 3.104591
63 5 9.502001 4.669753 2.63129
64 2 4.099697 37.128274 4.515198
65 2 2.630434 37.783802 4.362081
66 5 3.156496 37.030911 4.787453
67 2 27.997954 5.626316 7.254431
68 2 28.432635 5.917779 5.72538
69 5 28.425116 5.223334 6.461734
70 2 15.029417 5.833495 7.762091
71 2 14.48053 6.023293 9.270267
72 5 14.592893 5.363052 8.511331
73 2 15.202206 31.199983 6.448235
74 2 15.120944 31.441151 4.852262
75 5 15.5825 30.91524 5.583638
76 2 29.137624 43.005384 5.036006
77 2 29.98855 43.086508 3.664423
78 5 29.114454 42.783416 4.075056
79 2 17.241783 60.897305 5.250134
80 2 16.862842 61.23404 3.715562
81 5 17.598854 61.270157 4.409472
82 2 32.184774 56.741495 1.229647
83 2 30.775077 55.985204 1.000145
84 5 31.700888 55.898857 1.400076
85 2 26.272624 51.317078 14.770737
86 2 25.107052 52.40511 15.034413
87 5 26.098346 52.282973 14.870261
88 2 8.514884 39.81091 10.15884
89 2 9.560503 39.790529 11.390977
90 5 8.80998 40.311927 10.955791
91 2 6.688737 5.47122 1.000682
92 2 5.2379 5.892879 1.574417
93 5 5.939226 5.163122 1.5633
94 2 14.246336 29.587437 13.528063
95 2 14.451823 30.658643 14.720619
96 5 14.484677 30.525761 13.717728
97 2 16.302306 38.938351 2.290512
98 2 17.142896 38.435775 1.00493
99 5 16.52477 39.157009 1.354601
100 2 11.829381 10.74621 3.908409
101 2 13.219843 10.719624 4.731697
102 5 12.60984 11.293267 4.163052
103 2 12.184209 46.498546 12.341069
104 2 11.504848 46.174306 10.910953
105 5 11.568311 46.8547 11.657655
106 2 15.908107 13.933329 4.962711
107 2 15.666309 13.45321 6.486822
108 5 16.370407 13.694377 5.800812
109 2 14.296261 55.229053 14.467612
110 2 15.437516 54.789878 13.410939
111 5 14.956519 54.525645 14.261439
112 2 17.207542 8.511503 13.735655
113 2 17.70305 9.05958 15.173007
114 5 16.952127 8.587354 14.685519
115 2 26.48918 31.073673 12.686839
116 2 26.125486 32.390645 13.550094
117 5 25.887435 31.420375 13.387505
118 2 30.200408 18.780964 7.028935
119 2 30.987271 19.03518 8.417501
120 5 30.534306 19.486137 7.632651
121 2 28.070477 25.291465 14.169622
122 2 27.140521 24.122247 13.553176
123 5 27.133796 25.018616 14.023287
124 2 16.621655 54.548551 4.257641
125 2 15.427327 54.739729 3.185762
126 5 15.654956 54.411977 4.115972
127 2 34.722889 58.696696 4.295869
128 2 33.796584 57.996781 5.420135
129 5 33.971179 58.856094 4.914542
130 2 28.070875 55.135152 12.143681
131 2 28.38799 54.362202 10.760249
132 5 28.267304 54.24832 11.758745
133 2 28.170907 35.452251 7.621215
134 2 28.254442 36.688844 6.584028
135 5 28.685235 36.263137 7.395027
136 2 19.348048 52.423663 12.114282
137 2 19.800493 53.432794 13.292775
138 5 19.021465 53.128069 12.722876
139 2 11.683828 21.452546 12.4869
140 2 11.574035 21.652239 10.886911
141 5 11.143449 21.872152 11.776159
142 2 17.816534 38.240121 9.224683
143 2 17.301358 38.642197 10.702798
144 5 17.726179 37.908774 10.149494
145 2 2.458805 23.448387 5.366233
146 2 1.447732 23.304531 6.618803
147 5 1.915475 22.801325 5.875481
148 2 24.609863 1.003702 5.620743
149 2 24.19483 1.475866 7.109603
150 5 24.931572 1.491326 6.415701
151 2 17.31388 14.405115 0.988597
152 2 17.752802 12.849815 1.005491
153 5 18.031627 13.787492 1.265386
154 2 19.342609 43.276313 1.649031
155 2 18.11819 44.082756 0.969072
156 5 19.123904 44.051155 1.078926
157 2 29.137046 16.251909 12.677264
158 2 29.404547 17.783217 12.235185
159 5 29.175139 16.85657 11.898698
160 2 17.947514 59.210031 6.57951
161 2 16.485996 58.982897 5.92815
162 5 17.235609 58.540504 6.44477
163 2 28.531559 44.482477 7.775015
164 2 27.849494 44.499962 6.309963
165 5 28.581807 44.086155 6.872998
166 2 19.406482 54.998728 0.999267
167 2 18.340327 56.213232 0.985504
168 5 18.458772 55.222741 1.157048
169 2 30.638891 15.718803 14.191946
170 2 29.180296 15.190165 14.644648
171 5 30.177039 15.048048 14.748733
172 2 11.956155 21.485765 7.934406
173 2 11.737892 19.992054 7.35727
174 5 11.844196 20.966095 7.103359
175 2 34.095127 47.528018 15.916388
176 2 35.412245 46.915498 15.20793
177 5 35.064744 47.663332 15.794883
178 2 7.459011 44.327101 10.644367
179 2 7.451983 44.769381 12.198791
180 5 6.965999 44.856423 11.315179
181 2 5.567513 29.296919 11.171755
182 2 5.340047 29.786309 9.648386
183 5 5.769181 30.022254 10.53422
184 2 32.528364 3.646794 15.881331
185 2 31.867003 2.40055 16.669604
186 5 32.453571 3.219632 16.767429
187 2 20.746278 46.993072 14.617539
188 2 21.829472 46.468561 13.538894
189 5 20.884781 46.349917 13.882421
190 2 26.02558 9.568753 6.083118
191 2 26.920197 8.719271 5.039119
192 5 26.185673 8.660429 5.733048
193 2 5.038677 8.031129 1.002495
194 2 5.626722 9.45397 1.494045
195 5 5.862172 8.490369 1.292643
196 2 11.614261 16.892395 16.900723
197 2 12.544146 16.191821 15.779828
198 5 11.905425 16.956017 15.960294
199 2 6.490215 13.780458 5.83672
200 2 6.670389 15.120878 6.721428
201 5 6.13148 14.270849 6.613931
202 2 10.123727 53.324303 13.826866
203 2 10.167212 53.228905 15.439597
204 5 9.62986 53.559156 14.647944
205 2 14.96709 38.549357 16.316362
206 2 15.662598 37.540271 17.369884
207 5 15.817262 38.342147 16.771887
208 2 23.96797 3.77236 5.521941
209 2 23.395798 2.548632 4.634808
210 5 23.297867 3.535409 4.837801
211 2 16.403576 33.394564 10.870194
212 2 15.647796 32.228951 11.696051
213 5 15.849177 33.220492 11.667422
214 2 2.590541 57.102972 11.940803
215 2 1.978113 55.6081 11.987538
216 5 2.831678 56.146813 11.911767
217 2 13.109143 53.113051 13.146734
218 2 13.621333 54.358349 12.252984
219 5 13.133126 53.472028 12.228153
220 2 17.646821 11.726456 3.599009
221 2 18.65844 10.862344 2.681495
222 5 17.815615 11.422825 2.675674
223 2 33.044966 25.591929 3.919742
224 2 33.247861 25.510553 5.521025
225 5 32.601357 25.334324 4.762406
226 2 21.754601 59.144434 13.664914
227 2 21.741528 59.148767 15.280991
228 5 21.371516 59.597944 14.452825
229 2 9.045674 59.356672 15.923624
230 2 10.370327 58.459499 16.152249
231 5 10.031248 59.391396 15.949468
232 2 23.708546 49.856012 5.57719
233 2 24.068471 50.292279 7.091132
234 5 23.742181 50.626016 6.192977
235 2 13.298079 40.316327 5.859869
236 2 13.001404 40.645204 7.414127
237 5 12.608254 40.649564 6.48142
238 2 34.157367 43.085569 14.206758
239 2 34.004824 43.319231 12.614895
240 5 34.258587 43.757299 13.491381
241 2 5.96361 61.262628 12.5121
242 2 4.708675 60.696565 11.665573
243 5 5.12667 60.745633 12.586117
244 2 22.029554 61.280443 15.71318
245 2 22.606422 60.509581 17.011213
246 5 22.826764 61.179923 16.285529
247 2 22.244945 41.591768 4.171467
248 2 21.156245 41.361567 5.343489
249 5 21.447183 41.983426 4.599733
250 2 7.430026 37.544762 3.89292
251 2 5.992522 38.207168 4.219568
252 5 6.964214 38.167238 4.500188
253 2 27.021946 6.682713 4.221193
254 2 25.752343 5.697998 4.39538
255 5 26.131635 6.465791 3.855787
256 2 29.092131 18.360998 3.970779
257 2 28.542694 18.802491 5.425116
258 5 28.373682 18.202135 4.627912
259 2 32.30586 61.289608 13.799934
260 2 31.82096 61.278062 15.341568
261 5 32.029725 60.697516 14.539128
262 2 6.005594 9.03574 6.874048
263 2 6.636309 9.78405 5.587919
264 5 6.779584 9.043051 6.262396
265 2 1.941295 8.071093 6.926636
266 2 1.829468 7.508518 5.415709
267 5 1.300253 7.792273 6.230536
268 2 25.359893 17.955205 9.143378
269 2 26.663172 18.779612 9.626815
270 5 26.324789 17.872536 9.331456
271 2 4.754041 12.955379 7.712728
272 2 4.338126 12.528043 6.210631
273 5 3.982149 12.798011 7.118885
274 2 35.411571 27.525652 7.322679
275 2 34.176579 28.462002 6.864487
276 5 35.162442 28.275125 6.73153
277 2 22.390272 8.090012 4.54027
278 2 21.815391 7.233293 3.296309
279 5 21.596631 7.956654 3.969673
280 2 3.023681 13.584152 0.996743
281 2 3.47896 13.777051 2.535381
282 5 2.954056 14.188026 1.773736
283 2 30.071457 24.889421 11.015143
284 2 28.943327 24.163993 11.916792
285 5 29.110801 24.66865 11.055513
286 2 8.322068 38.966071 13.009883
287 2 7.237859 37.890734 12.480698
288 5 7.814041 38.160726 13.267873
289 2 35.137119 50.267609 11.384053
290 2 35.412766 49.374642 10.065521
291 5 34.732297 49.601094 10.779811
292 2 26.776555 59.381103 11.507945
293 2 26.282282 60.316463 12.729703
294 5 26.174543 59.411695 12.288891
295 2 30.328366 8.56621 9.27793
296 2 28.835845 9.139482 9.513803
297 5 29.431372 8.631036 8.872431
298 2 20.358396 36.525952 11.873344
299 2 20.183107 35.544883 13.145615
300 5 20.237432 35.582646 12.13559
301 2 17.494414 23.736002 15.406949
302 2 16.966781 22.408756 16.1632
303 5 17.778485 22.985132 15.980298
304 2 1.203964 36.715596 7.251021
305 2 1.001404 37.259314 5.742633
306 5 1.515003 37.392782 6.604566
307 2 14.428261 30.649021 17.87325
308 2 15.435473 30.310594 16.655513
309 5 15.0609 29.972798 17.533075
310 2 26.362549 45.540292 16.40522
311 2 25.997016 44.60465 15.139181
312 5 25.62656 45.047946 15.970311
313 2 13.558731 10.716768 6.901928
314 2 14.317706 9.412683 6.32295
315 5 14.181813 9.990775 7.142626
316 2 34.477685 20.992757 5.900106
317 2 35.345336 19.814718 5.213592
318 5 35.362266 20.779615 5.518901
319 2 9.628605 18.770497 11.81364
320 2 9.653763 19.720357 13.120938
321 5 10.227942 19.256252 12.428512
322 2 21.120953 28.139675 10.487988
323 2 21.823586 29.315851 11.3452
324 5 21.501143 28.35677 11.372045
325 2 17.057387 55.465565 12.100296
326 2 16.774506 56.524912 13.287586
327 5 17.158551 56.412486 12.357856
328 2 19.404849 3.581829 14.603986
329 2 19.565573 3.23998 16.175355
330 5 19.958037 3.760493 15.401039
331 2 8.647715 59.775548 2.682542
332 2 9.232499 58.363002 3.206599
333 5 8.431505 58.981497 3.22657
334 2 32.270181 17.637614 5.799702
335 2 32.376096 17.405642 7.395593
336 5 32.260633 18.101932 6.670075
337 2 28.13116 58.891479 4.337143
338 2 27.615367 58.388469 5.783806
339 5 28.392756 58.374702 5.135729
340 2 26.213492 6.516306 11.271342
341 2 26.112366 4.910094 11.123863
342 5 25.57716 5.765902 11.199185
343 2 21.886744 59.24957 6.714763
344 2 23.31746 58.714539 6.186852
345 5 22.687899 59.50701 6.199878
346 2 24.136127 26.23487 17.366829
347 2 23.064165 25.929662 18.537145
348 5 23.55538 25.533245 17.745887
349 2 11.727558 19.480691 10.395774
350 2 12.828605 20.370156 9.615747
351 5 11.913429 19.943625 9.544672
352 2 25.243284 26.108803 13.77311
353 2 25.313877 26.404448 12.185815
354 5 25.37051 25.68223 12.892724
355 2 30.216097 32.382027 11.149225
356 2 30.926374 33.687573 10.514439
357 5 30.698277 33.211677 11.378165
358 2 34.465076 18.365685 3.828339
359 2 33.014008 18.948196 3.419709
360 5 33.972878 19.196797 3.627778
361 2 9.926536 54.553344 7.09523
362 2 9.413551 55.769262 8.028121
363 5 9.928627 55.535424 7.18875
364 2 24.083969 60.932592 3.453289
365 2 23.741584 59.36195 3.2867
366 5 24.12199 60.060426 3.912759
367 2 28.299176 57.573605 2.347686
368 2 27.246482 56.351497 2.448588
369 5 27.745411 57.055057 2.978306
370 2 11.55848 44.489151 7.352519
371 2 11.675722 44.470717 8.964291
372 5 12.154444 44.713235 8.106074
373 2 1.757026 48.302935 2.523953
374 2 1.375743 48.491817 4.083069
375 5 1.000685 48.331548 3.156693
376 2 6.358038 58.714452 4.631192
377 2 7.756866 58.888488 5.42169
378 5 6.983642 59.384179 4.996317
379 2 10.66136 9.864516 13.726716
380 2 10.724258 11.240076 12.880681
381 5 10.441465 10.825653 13.759776
382 2 27.839058 32.567694 8.319237
383 2 28.798456 32.039688 9.50779
384 5 28.004243 31.806849 8.925091
385 2 11.681393 56.764776 9.718297
386 2 11.356362 57.686732 8.431345
387 5 11.284771 56.752848 8.815092
388 2 12.602689 60.95681 18.143048
389 2 13.292105 59.557447 17.720691
390 5 12.525306 60.189423 17.527938
391 2 21.053188 5.236533 17.161768
392 2 22.145671 4.119963 17.576075
393 5 21.276625 4.278952 17.082102
394 2 17.658148 53.427606 8.559298
395 2 16.483935 53.588105 9.658097
396 5 16.712298 53.682281 8.676513
397 2 15.739263 55.30362 16.36767
398 2 16.698436 54.23605 15.624583
399 5 16.615803 54.854203 16.42182
400 2 16.992137 51.675916 3.739434
401 2 16.00221 52.354692 4.821656
402 5 16.932701 52.383479 4.424308
403 2 7.483857 48.265435 4.779237
404 2 6.156863 48.294848 3.85722
405 5 6.58553 48.664631 4.696287
406 2 22.178906 44.023103 2.516535
407 2 21.665878 44.24367 0.999945
408 5 21.38217 44.226263 1.971404
409 2 24.944308 14.460913 2.160608
410 2 24.233006 15.825727 2.65379
411 5 24.2833 15.147016 1.904558
412 2 16.570281 35.555521 7.8685
413 2 16.611336 36.133829 9.377065
414 5 16.156969 36.2137 8.476123
415 2 18.637361 54.033748 10.733723
416 2 20.100359 53.790805 10.091454
417 5 19.16312 53.416977 10.171228
418 2 14.556896 24.915366 15.022922
419 2 12.969531 24.965747 15.322303
420 5 13.837169 24.498517 15.55345
421 2 3.675193 11.155842 1.428337
422 2 3.444248 9.580747 1.706969
423 5 3.348366 10.318872 1.021035
424 2 20.46532 31.150074 11.118036
425 2 19.256321 31.252473 10.050454
426 5 19.731817 31.730859 10.805158
427 2 33.369214 39.748101 5.254382
428 2 32.12049 39.704904 6.279427
429 5 32.394672 39.885672 5.321996
430 2 30.855204 54.510007 5.856361
431 2 30.511999 55.920485 6.566755
432 5 31.215119 55.199821 6.462866
433 2 3.102531 53.713277 11.97371
434 2 3.65135 53.746269 13.493448
435 5 3.698766 54.200722 12.590259
436 2 7.658983 35.481325 10.092673
437 2 6.885554 34.097555 10.407133
438 5 7.76702 34.587216 10.495325
439 2 8.90051 43.458226 9.17115
440 2 10.183081 43.219278 10.12499
441 5 9.274616 42.859781 9.860453
442 2 27.371398 41.324966 14.160658
443 2 27.277083 42.425905 15.340037
444 5 27.487191 42.284157 14.360093
445 2 10.418939 9.086987 3.614347
446 2 9.240813 9.046813 4.719924
447 5 9.842978 8.479705 4.136561
448 2 28.253372 7.286334 11.54691
449 2 28.670793 6.927044 10.027513
450 5 28.42552 6.537011 10.928758
451 2 3.06152 59.19368 2.680468
452 2 4.499227 59.135083 3.416308
453 5 3.516755 58.909672 3.508316
454 2 33.815445 54.512561 7.858155
455 2 33.403544 55.456801 6.612907
456 5 33.537144 55.427464 7.615811
457 2 27.939264 22.89838 10.116078
458 2 27.098952 21.642231 9.543485
459 5 27.219168 22.260803 10.335599
460 2 16.85968 55.618077 6.153818
461 2 16.682064 55.687862 7.758647
462 5 16.473952 56.155707 6.885527
463 2 14.657856 39.816282 18.999777
464 2 14.126174 38.311928 18.742623
465 5 13.979282 39.287608 18.516795
466 2 22.023238 33.311804 17.37287
467 2 21.48448 33.239377 15.850901
468 5 21.361954 33.692594 16.747623
469 2 30.878656 7.271338 12.624214
470 2 30.799351 6.715226 11.108844
471 5 30.331505 6.730948 12.006285
472 2 26.355426 37.636665 14.982657
473 2 25.849169 37.841862 13.46164
474 5 26.028659 38.310623 14.340601
475 2 16.861037 12.13792 9.244319
476 2 17.873312 11.918727 10.484944
477 5 17.814718 12.059724 9.484338
478 2 15.955553 41.953521 4.087223
479 2 14.937272 40.725609 4.346515
480 5 15.738889 41.031942 3.809768
481 2 8.392471 23.168871 9.534345
482 2 8.495037 23.52871 11.10657
483 5 8.9824 23.112656 10.32305
484 2 20.627384 11.750999 6.301052
485 2 19.752265 10.48843 6.803027
486 5 19.911652 11.480662 6.923849
487 2 18.667923 6.319427 6.280233
488 2 20.061297 5.692511 6.806903
489 5 19.221805 6.184673 7.085396
490 2 32.791685 31.684174 7.355413
491 2 32.890021 31.146879 8.876445
492 5 33.392273 31.244882 8.003137
493 2 30.532621 33.231811 14.72191
494 2 31.717123 32.815785 15.739639
495 5 31.458781 33.442828 14.988237
496 2 4.1103 25.193929 11.730575
497 2 4.669462 25.226308 10.214598
498 5 4.691418 24.71906 11.090238
499 2 26.448037 59.333677 8.573338
500 2 27.201424 59.946863 7.281709
501 5 27.335065 59.466272 8.162447
502 2 14.452428 26.428606 13.003113
503 2 14.920087 26.698813 11.4799
504 5 15.186744 26.279074 12.361513
505 2 17.731144 48.27139 1.020251
506 2 19.188219 48.948166 1.195759
507 5 18.196323 49.135494 1.121065
508 2 1.406969 36.343063 15.044186
509 2 1.724451 37.064258 13.633166
510 5 1.000188 36.862786 14.310942
511 2 24.409033 35.066488 7.514164
512 2 24.655111 34.420232 8.974881
513 5 24.137493 34.328522 8.109903
514 2 3.467928 49.150599 4.152638
515 2 4.03986 48.402003 5.465799
516 5 3.564555 49.23063 5.131152
517 2 19.193624 20.313862 6.933309
518 2 19.000718 20.746736 5.388219
519 5 18.853633 21.031739 6.348254
520 2 25.713411 22.40386 3.806252
521 2 26.931376 23.43193 4.0737
522 5 26.48003 22.58661 4.399657
523 2 4.939641 48.414454 13.002307
524 2 4.141648 49.231514 11.858841
525 5 4.533148 48.331761 12.107234
526 2 30.149486 34.329466 7.191345
527 2 29.688536 33.868946 8.670312
528 5 29.651776 33.636025 7.685973
529 2 18.138735 47.973149 12.105404
530 2 18.965965 47.241519 13.285364
531 5 18.988214 47.992114 12.60666
532 2 34.791578 58.58263 9.997871
533 2 35.225861 58.973236 11.504762
534 5 35.4176 59.134407 10.524054
535 2 34.380132 3.755597 1.59585
536 2 35.048591 3.957402 3.053359
537 5 35.224947 3.972564 2.056767
538 2 33.249567 16.904989 13.021829
539 2 32.578554 16.003437 11.860434
540 5 32.580047 16.200313 12.853291
541 2 9.717869 20.344634 8.146821
542 2 10.150126 21.471938 9.221174
543 5 9.409334 21.162033 8.604966
544 2 11.392983 9.552468 11.015716
545 2 12.757723 10.149193 11.642853
546 5 11.928269 10.37589 11.108866
547 2 7.45143 56.741076 4.980525
548 2 7.536799 56.977769 3.384097
549 5 7.088602 56.438893 4.114343
550 2 12.204554 40.329097 10.576275
551 2 10.846766 41.127277 10.214037
552 5 11.766717 41.211642 10.62768
553 2 10.964079 31.333846 7.008144
554 2 11.024788 31.943013 8.503846
555 5 11.482267 31.322927 7.847544
556 2 35.115937 52.149917 13.754307
557 2 34.595153 50.915083 14.657559
558 5 34.347447 51.819929 14.277529
559 2 5.520848 25.464812 13.494091
560 2 6.219611 26.802525 14.072149
561 5 5.469742 26.450007 13.490809
562 2 35.41506 25.201062 3.475793
563 2 35.415767 23.701397 4.078205
564 5 35.01341 24.625706 4.169245
565 2 33.691065 53.921185 14.303044
566 2 32.831574 55.240258 14.66803
567 5 33.752659 54.821862 14.700809
568 2 26.62699 40.854143 8.788429
569 2 27.430766 41.600163 9.975566
570 5 26.523019 41.479453 9.544345
571 2 31.694733 51.45226 15.834843
572 2 32.143705 51.950298 14.364374
573 5 31.934467 51.138051 14.930945
574 2 5.44774 60.48947 16.590341
575 2 6.343985 60.280994 15.26174
576 5 6.079221 59.872992 16.149412
577 2 4.276275 47.248085 3.4083
578 2 4.223391 47.489793 1.811216
579 5 4.792867 47.145901 2.574081
580 2 9.379126 11.184928 3.243434
581 2 9.925281 11.455598 4.740213
582 5 9.914557 11.806817 3.790972
583 2 6.303181 39.179529 8.518064
584 2 6.305146 40.5907 7.730354
585 5 6.743456 40.061226 8.473367
586 2 21.55864 30.898774 1.110314
587 2 20.780768 32.083207 1.887444
588 5 21.21413 31.817949 1.012022
589 2 16.726641 26.526274 7.6244
590 2 15.84365 27.862227 7.406568
591 5 15.915858 26.877147 7.185367
592 2 24.956607 34.146711 3.476742
593 2 24.495398 35.523723 2.767501
594 5 24.175691 34.721768 3.295879
595 2 27.120859 30.540846 10.61938
596 2 28.627377 30.016311 10.360218
597 5 27.720364 29.765672 10.733092
598 2 22.157404 57.026617 12.442991
599 2 22.15892 56.483434 13.96511
600 5 22.656667 56.466989 13.083915
601 2 21.899939 23.294777 13.671032
602 2 23.267795 24.000406 14.163932
603 5 22.586311 23.283737 14.379553
604 2 7.877438 53.570927 15.964881
605 2 7.780061 52.277278 16.928669
606 5 7.906978 52.584876 15.972738
607 2 4.390125 55.528289 9.229306
608 2 4.68757 55.322526 10.804452
609 5 5.093863 55.289129 9.877987
610 2 10.827105 22.661386 5.996268
611 2 10.298357 22.866278 7.509655
612 5 10.176716 22.329972 6.659887
613 2 20.856862 26.695455 5.81845
614 2 20.189528 28.110464 5.413099
615 5 20.748327 27.336528 5.076509
616 2 10.071225 48.307109 12.398016
617 2 9.563346 48.329421 10.863918
618 5 9.641491 48.873345 11.713958
619 2 1.406201 41.734121 4.876266
620 2 0.991354 42.014789 3.339704
621 5 1.197093 42.449748 4.230215
622 2 11.035307 23.61714 16.136535
623 2 10.941337 24.115684 17.670979
624 5 11.569699 23.954783 16.893934
625 2 14.504326 30.814742 1.08727
626 2 13.481578 30.979756 2.327695
627 5 13.762476 31.364507 1.434616
628 2 11.890613 16.913195 12.445099
629 2 11.380307 15.454169 11.973156
630 5 11.083959 16.386719 12.232109
631 2 27.856092 16.010084 7.588304
632 2 27.646609 17.576118 7.248378
633 5 27.771523 16.904688 7.995443
634 2 20.80489 34.370086 6.839203
635 2 21.309406 34.544428 5.313764
636 5 21.488054 34.074009 6.192011
637 2 7.484566 30.096311 11.954367
638 2 7.11772 31.551133 11.353692
639 5 7.518926 31.063661 12.14485
640 2 8.099643 17.133661 4.181789
641 2 7.918827 16.616242 5.702144
642 5 8.39134 16.443749 4.823791
643 2 23.588926 45.755781 12.417335
644 2 24.664205 45.286378 13.52879
645 5 23.960429 45.97818 13.303764
646 2 28.360917 54.412169 8.54695
647 2 29.036231 54.190433 7.095509
648 5 28.308887 54.681906 7.599446
649 2 23.567106 23.125295 2.603134
650 2 23.647081 23.640104 1.073275
651 5 23.361249 23.887892 2.012119
652 2 20.831089 1.195751 3.886333
653 2 20.194428 1.126385 2.402504
654 5 20.116772 1.561973 3.312867
655 2 29.658777 45.003772 17.284181
656 2 29.527905 43.446188 16.873449
657 5 30.142038 44.143776 17.274372
658 2 15.910081 18.204371 1.003826
659 2 14.475895 18.93072 1.16943
660 5 15.288134 18.587855 1.666663
661 2 6.684227 45.656507 5.368751
662 2 6.452126 45.704567 3.770091
663 5 6.567303 46.2677 4.603243
664 2 30.426061 13.476602 8.795749
665 2 30.582888 12.101428 7.961364
666 5 30.957205 12.648152 8.726549
667 2 34.838544 30.085979 5.527217
668 2 34.883229 29.59057 3.989534
669 5 34.7202 30.385379 4.594702
670 2 22.221022 3.189354 9.303348
671 2 23.508535 3.640086 8.436718
672 5 23.014217 2.847541 8.826654
673 2 35.242603 45.566592 10.053061
674 2 33.978097 46.24806 9.312438
675 5 34.734504 46.407695 9.965808
676 2 28.833542 41.970991 12.650749
677 2 30.390693 41.939093 13.082209
678 5 29.743831 41.784938 12.319102
679 2 17.747408 44.398375 4.366078
680 2 19.087717 43.724738 3.764679
681 5 18.152656 43.537894 4.104203
682 2 5.859798 12.162749 10.760704
683 2 5.297981 13.426618 9.924705
684 5 5.331157 12.415863 9.967166
685 2 25.157413 57.100275 5.281147
686 2 24.16525 56.193864 6.178882
687 5 25.135101 56.392596 5.968115
688 2 25.513162 41.858991 12.726472
689 2 24.475189 40.673565 12.366927
690 5 25.452849 40.934975 12.386196
691 2 4.8374 33.139381 4.582922
692 2 5.965309 32.204726 3.90018
693 5 5.238487 32.238314 4.603834
694 2 22.44447 30.250861 5.756203
695 2 22.129681 31.620533 4.958204
696 5 22.627625 31.220148 5.743233
697 2 23.659216 52.121516 10.798225
698 2 24.690765 52.078206 12.041577
699 5 24.37883 52.624217 11.248422
700 2 6.534311 45.059846 8.788112
701 2 5.981615 45.847554 7.489675
702 5 5.72259 45.446671 8.38227
703 2 10.74151 45.328588 16.178856
704 2 9.356331 45.802071 15.494028
705 5 10.315607 46.065792 15.680492
706 2 22.656498 16.975845 12.915802
707 2 23.631042 16.331039 14.032217
708 5 22.995837 16.121016 13.272658
709 2 22.933101 34.262496 14.537174
710 2 24.125073 35.274363 14.128242
711 5 23.892487 34.450842 14.668839
712 2 5.463722 49.917132 6.237026
713 2 5.052221 51.02445 7.339935
714 5 5.460097 50.107972 7.204909
715 2 24.105862 55.257905 15.456742
716 2 24.633895 55.785573 14.023339
717 5 23.902931 55.264809 14.49134
718 2 16.870614 53.446621 6.519057
719 2 18.221061 52.624771 6.183272
720 5 17.292209 52.556782 6.579679
721 2 23.78993 21.678057 5.751796
722 2 24.987809 20.593259 5.737819
723 5 23.984657 20.713824 5.677181
724 2 8.925252 5.448806 10.702755
725 2 8.496599 5.227491 9.160299
726 5 8.245489 5.684568 10.027796
727 2 4.489076 1.823818 12.858454
728 2 2.992085 1.215165 12.879788
729 5 3.546809 2.030605 12.652047
730 2 9.098872 13.406576 14.466984
731 2 9.918648 13.443722 13.07469
732 5 9.501724 12.837056 13.769425
733 2 10.0283 59.884439 7.778859
734 2 10.78643 61.276386 8.094481
735 5 10.853691 60.394871 7.601598
736 2 14.028202 6.640096 12.16052
737 2 13.676021 7.440356 10.801312
738 5 13.619595 6.543829 11.26777
739 2 2.868453 11.548045 4.899731
740 2 1.255335 11.449358 4.902245
741 5 2.091445 11.289551 5.449886
742 2 10.742801 8.834398 1.009843
743 2 10.460198 10.423054 1.100411
744 5 10.026837 9.513088 1.007212
745 2 3.870756 21.542848 4.589745
746 2 3.792905 21.380582 2.983662
747 5 3.325797 21.170266 3.856647
748 2 32.543028 56.778891 10.058826
749 2 32.862513 55.230199 9.725094
750 5 32.148473 55.874902 10.039786
751 2 26.128609 60.486355 5.003698
752 2 24.965786 60.132409 6.068808
753 5 25.736412 59.752519 5.533695
754 2 31.260156 47.443969 8.332342
755 2 31.942672 47.265871 6.878262
756 5 31.147401 47.648549 7.373872
757 2 34.474458 10.244596 12.65091
758 2 33.414993 10.813859 11.571387
759 5 33.821547 9.973598 11.962798
760 2 23.345661 32.213194 15.284003
761 2 24.90668 32.624267 15.362337
762 5 24.240213 31.998636 14.92767
763 2 24.327802 40.474245 2.503015
764 2 23.908315 40.159501 4.031695
765 5 23.589228 40.150288 3.071161
766 2 21.416983 10.17645 1.008798
767 2 21.250275 8.94058 2.036772
768 5 21.421429 9.191919 1.071338
769 2 20.673466 57.294893 15.780465
770 2 19.658829 56.593498 16.824712
771 5 19.774922 57.366287 16.181403
772 2 9.251191 20.865846 11.266952
773 2 7.975392 20.911821 10.275933
774 5 8.780585 20.367054 10.55775
775 2 28.269128 44.831705 4.168079
776 2 28.406748 45.561874 2.732875
777 5 28.511034 45.68309 3.732354
778 2 4.185377 19.367288 15.701386
779 2 5.196446 18.94357 16.888861
780 5 4.831395 19.723232 16.356516
781 2 30.289276 7.041071 6.387393
782 2 30.618111 6.834241 7.956145
783 5 29.953865 6.63144 7.219819
784 2 18.575708 58.659231 4.529347
785 2 17.605516 58.295063 3.289184
786 5 17.725811 58.218515 4.29128
787 2 4.791075 37.211475 14.512307
788 2 4.973284 35.716726 15.099181
789 5 5.462375 36.521662 14.728513
790 2 18.080037 5.768272 2.771396
791 2 17.74326 5.827028 4.35096
792 5 17.435118 6.117019 3.43146
793 2 33.427028 49.305473 2.478256
794 2 32.334647 48.128297 2.297
795 5 32.661664 49.012681 1.928964
796 2 28.587558 35.441488 4.558657
797 2 28.493916 34.35074 5.747519
798 5 29.071726 35.07205 5.334754
799 2 19.547565 7.784329 14.895293
800 2 19.382046 8.426971 13.421689
801 5 19.858511 8.515337 14.310339
802 2 19.114464 30.471177 1.202396
803 2 20.137408 29.225515 1.084891
804 5 19.165632 29.502166 1.024543
805 2 25.351634 7.850742 2.210777
806 2 25.193139 8.440469 3.707104
807 5 25.79186 8.412994 2.891441
808 2 20.519725 30.647276 6.726846
809 2 19.703896 29.879285 7.891539
810 5 20.419311 29.778159 7.182679
811 2 22.287328 28.786795 17.948856
812 2 23.390921 29.741936 18.642891
813 5 22.536721 29.72923 18.100021
814 2 29.043933 4.366215 4.071146
815 2 29.890438 3.979464 5.392413
816 5 29.944659 4.397772 4.472302
817 2 9.250288 22.116691 16.573508
818 2 8.842159 23.5603 15.97241
819 5 8.486132 22.717606 16.405582
820 2 6.206824 14.838893 14.593733
821 2 6.127384 13.467838 15.445666
822 5 6.687177 14.289983 15.257953
823 2 7.759175 54.937041 2.59866
824 2 7.545148 54.841031 0.999639
825 5 7.45912 55.444525 1.807675
826 2 3.817068 29.288275 16.970898
827 2 4.032586 28.813735 15.441107
828 5 3.654621 28.546417 16.341224
829 2 17.334053 9.497649 6.561
830 2 16.260461 8.476236 5.916009
831 5 16.495634 9.452492 6.043076
832 2 34.006273 51.042745 7.33303
833 2 34.243887 51.019425 8.931433
834 5 34.350377 51.572761 8.090596
835 2 22.91892 53.819975 3.364963
836 2 23.394987 53.576038 1.839922
837 5 23.369052 53.175364 2.76907
838 2 34.774084 10.591186 1.056834
839 2 34.057047 9.710446 2.206638
840 5 34.165646 9.829358 1.207341
841 2 14.145192 49.046377 10.462719
842 2 13.859995 48.94857 12.050482
843 5 14.042946 48.412446 11.211657
844 2 17.655713 28.822785 4.202974
845 2 16.948546 28.531127 5.626613
846 5 16.847355 29.00542 4.738168
847 2 27.156861 16.578634 11.081063
848 2 27.083009 17.030748 12.630913
849 5 26.873643 17.309138 11.680548
850 2 20.927838 41.903034 1.012609
851 2 22.127559 41.419956 1.981732
852 5 21.260019 41.939789 1.940798
853 2 16.096661 14.295444 2.814823
854 2 15.766941 12.736424 3.08433
855 5 16.476 13.385956 2.768308
856 2 34.900156 1.000188 15.952031
857 2 34.317565 2.268746 15.137635
858 5 34.271398 1.758139 16.010376
859 2 34.55262 34.282257 11.740739
860 2 35.412853 35.608024 12.078729
861 5 35.291362 34.850895 11.41803
862 2 27.318877 18.376522 2.584965
863 2 26.879912 18.958678 1.14264
864 5 26.540996 18.659539 2.048278
865 2 8.598384 11.34747 15.110909
866 2 9.955789 11.752342 15.889
867 5 8.999524 11.442317 16.007191
868 2 14.041474 17.232755 12.141068
869 2 14.285836 16.438592 13.527245
870 5 14.730348 16.783313 12.685756
871 2 8.249255 3.756766 5.169469
872 2 8.548222 2.233874 5.620375
873 5 8.865355 3.192285 5.693886
874 2 25.633138 2.568858 4.471475
875 2 25.250037 3.773787 3.464859
876 5 25.283713 2.767698 3.570589
877 2 22.915304 55.864139 10.377486
878 2 23.518026 54.642959 11.24774
879 5 23.724772 55.319561 10.523866
880 2 35.042483 11.604576 2.989449
881 2 33.937245 12.498243 3.758671
882 5 34.076655 11.683657 3.174256
883 2 1.708882 4.929385 14.261775
884 2 2.147666 4.222419 15.647258
885 5 2.022836 4.079892 14.652959
886 2 9.297481 37.168167 7.693968
887 2 8.316751 38.366295 8.157167
888 5 8.999286 37.690298 8.476074
889 2 1.000158 6.604755 2.619555
890 2 2.20854 5.535414 2.528903
891 5 1.611725 6.151776 1.99184
892 2 20.958904 17.811283 11.560332
893 2 21.530124 19.136623 12.28771
894 5 20.734626 18.740859 11.802857
895 2 30.377787 57.436419 4.982935
896 2 30.243066 57.521794 3.374689
897 5 30.70078 57.918977 4.185412
898 2 13.825098 41.349111 11.670258
899 2 14.517201 41.81973 13.052795
900 5 14.6907 41.575122 12.086052
901 2 22.95063 53.823016 16.662079
902 2 21.892808 52.864232 15.904688
903 5 22.87501 53.082881 16.014227
904 2 13.248809 56.250516 3.703278
905 2 12.525359 55.135963 2.78334
906 5 13.283483 55.805409 2.823558
907 2 31.690642 31.564784 2.194561
908 2 32.112576 30.396474 3.228446
909 5 32.290843 31.352618 2.948202
910 2 29.547281 22.472486 4.93989
911 2 28.671589 21.207444 4.44519
912 5 29.589761 21.632911 4.423614
913 2 18.540796 55.18831 13.695347
914 2 19.194177 55.227116 15.173008
915 5 18.558789 54.72477 14.566001
916 2 18.083285 33.969439 8.001141
917 2 17.408689 32.877687 8.983431
918 5 17.630082 33.858879 8.870402
919 2 8.991876 50.020881 6.177128
920 2 9.090139 48.410573 6.272782
921 5 9.256802 49.212324 5.677848
922 2 31.177665 1.818974 13.299501
923 2 32.250195 1.73923 14.505825
924 5 32.033149 1.411007 13.573254
925 2 3.308766 39.759052 5.034493
926 2 4.446317 40.02136 3.916877
927 5 4.142854 40.253999 4.854062
928 2 1.431134 30.077547 12.292219
929 2 1.280925 28.483818 12.070041
930 5 1.001831 29.393689 11.725413
931 2 25.84877 10.240726 16.511888
932 2 26.575593 9.896616 17.913749
933 5 26.029009 10.588853 17.417179
934 2 5.814657 28.208881 16.576123
935 2 5.866113 26.620849 16.280482
936 5 6.418751 27.430084 16.533974
937 2 26.325152 34.101318 6.000048
938 2 26.331519 34.00326 7.613194
939 5 26.103686 33.510864 6.758696
940 2 12.778937 35.853894 12.923119
941 2 12.922368 35.7516 11.316614
942 5 13.432791 35.856175 12.184404
943 2 6.009958 51.965304 5.307814
944 2 7.346155 51.067018 5.167979
945 5 6.991646 51.98543 5.403286
946 2 18.950983 38.741082 3.697001
947 2 19.43996 38.008405 2.342017
948 5 19.475135 37.97932 3.353177
949 2 29.024999 1.679127 5.572404
950 2 29.245008 1.750538 7.171901
951 5 29.158555 1.127209 6.379113
952 2 30.309586 34.096496 16.901014
953 2 29.340734 35.375987 16.710947
954 5 30.046463 34.957728 17.30385
955 2 27.034207 25.191539 11.550071
956 2 26.247187 24.392397 10.386513
957 5 26.438189 24.424028 11.380014
958 2 20.135115 40.584091 3.529089
959 2 19.213862 41.627732 4.350064
960 5 19.635137 41.43094 3.450994
961 2 5.187866 55.561517 1.783681
962 2 4.61627 54.052558 1.693047
963 5 5.412524 54.645284 1.495104
964 2 2.600949 43.897829 13.133109
965 2 2.749134 43.388885 14.659841
966 5 3.186483 43.39436 13.74703
967 2 26.956632 52.755734 10.32442
968 2 26.310314 51.418872 9.686481
969 5 26.127418 52.380578 9.943772
970 2 33.547683 44.52779 2.362583
971 2 33.185458 46.102229 2.405356
972 5 33.836902 45.397599 2.727296
973 2 18.701234 17.85604 10.213174
974 2 18.639328 19.103282 11.239064
975 5 18.728849 18.097476 11.1693
976 2 26.743795 39.734115 10.912076
977 2 27.107556 39.323364 12.432226
978 5 27.342831 39.943306 11.667474
979 2 35.413221 5.778331 15.691739
980 2 34.967719 4.454379 14.878983
981 5 34.735052 5.062882 15.653655
982 2 14.719342 57.516844 14.755251
983 2 14.48633 57.282267 13.173298
984 5 14.023344 57.4139 14.063716
985 2 33.855978 41.434249 10.498734
986 2 33.767574 39.950298 9.864722
987 5 33.511909 40.52362 10.65874
988 2 32.780854 6.530267 8.19063
989 2 32.45796 6.125538 9.721587
990 5 32.399906 5.819264 8.758595
991 2 30.212328 37.62553 13.998662
992 2 29.549182 37.278285 15.430987
993 5 30.099161 36.907998 14.666174
994 2 13.978589 3.958858 13.387469
995 2 14.825131 2.741968 12.743698
996 5 14.665311 3.279149 13.586563
997 2 14.83135 59.710213 14.612415
998 2 15.58888 61.060696 15.075273
999 5 15.257156 60.534411 14.276831
1000 2 26.956615 19.475482 12.008378
1001 2 25.504692 19.012574 11.470295
1002 5 26.053748 19.803203 11.783299
1003 2 11.681643 13.056448 5.138633
1004 2 11.284365 14.16388 4.030636
1005 5 11.649107 14.027 4.964849
1006 2 34.666541 61.039514 9.434953
1007 2 35.068406 61.253473 10.985637
1008 5 35.413797 61.274995 10.034444
1009 2 6.405542 35.870203 12.816675
1010 2 5.852981 35.851263 11.298053
1011 5 5.755319 36.29002 12.20496
1012 2 31.063497 45.555367 1.078113
1013 2 30.441938 46.590226 2.152648
1014 5 30.73064 45.631592 2.003654
1015 2 17.534845 4.446202 15.363616
1016 2 17.899844 6.004878 15.585431
1017 5 17.875906 5.093574 16.025295
1018 2 34.258816 18.12511 16.853889
1019 2 35.311035 17.902276 15.647624
1020 5 34.642146 18.547332 16.048894
1021 2 18.43191 33.821334 11.60374
1022 2 18.399177 33.534666 13.193911
1023 5 18.532508 34.247485 12.487768
1024 2 4.388472 40.551059 9.666517
1025 2 3.358749 41.713314 10.114545
1026 5 4.207071 41.518336 9.597959
1027 2 13.777512 45.304234 1.701215
1028 2 13.527865 46.252436 2.985927
1029 5 13.170705 45.463033 2.462661
1030 2 14.294178 12.98449 11.490128
1031 2 15.842027 12.920104 11.029786
1032 5 15.099011 12.414005 11.494887
1033 2 6.729227 50.615048 8.928113
1034 2 6.652323 49.875257 10.362926
1035 5 6.243888 49.923957 9.438082
1036 2 7.426091 44.603457 14.399843
1037 2 7.663648 44.490135 15.994403
1038 5 7.2726 45.064503 15.258393
1039 2 18.668909 42.134797 17.723835
1040 2 19.664614 42.139804 18.996801
1041 5 19.405309 42.632729 18.151631
1042 2 21.958028 45.446867 6.497472
1043 2 22.132592 45.832903 4.937857
1044 5 22.103986 46.202164 5.879852
1045 2 20.620557 49.044269 15.422768
1046 2 19.576302 50.199476 15.855117
1047 5 20.305343 49.951689 15.198133
1048 2 4.952392 19.597276 9.612834
1049 2 6.368487 18.860007 9.361821
1050 5 5.900253 19.756916 9.390782
1051 2 3.069897 8.961762 14.346567
1052 2 2.157552 8.993044 13.012946
1053 5 2.187198 9.229459 13.996692
1054 2 5.212952 61.112888 5.85881
1055 2 6.060842 60.146367 6.838002
1056 5 5.178199 60.626686 6.716499
1057 2 1.81414 30.16845 14.751763
1058 2 2.496164 28.991074 13.879683
1059 5 1.905437 29.188975 14.677432
1060 2 7.499057 48.762705 1.656356
1061 2 6.142961 48.183068 0.995357
1062 5 6.84319 48.027694 1.709545
1063 2 12.930469 24.259381 2.66455
1064 2 11.603198 23.397961 2.993497
1065 5 11.972728 24.165823 2.44727
1066 2 13.328906 42.486069 5.507694
1067 2 13.167669 42.999724 7.031524
1068 5 12.68226 42.854463 6.155279
1069 2 16.917155 16.632382 12.220054
1070 2 16.936376 16.340302 13.809461
1071 5 17.336955 16.076052 12.918262
1072 2 32.879172 25.752306 11.450908
1073 2 32.153355 26.927228 10.611477
1074 5 32.554525 26.68214 11.507871
1075 2 11.738981 52.204856 3.281861
1076 2 11.739919 53.084215 1.925903
1077 5 11.438463 53.059731 2.891849
1078 2 22.694505 50.389072 1.002923
1079 2 23.557032 50.467398 2.367403
1080 5 23.04322 51.01055 1.685121
1081 2 12.450993 52.825573 9.842026
1082 2 12.707188 51.793682 8.624874
1083 5 12.694597 52.771097 8.887604
1084 2 15.436033 49.265503 1.002221
1085 2 16.470118 50.486157 1.231495
1086 5 16.108513 49.627362 1.626768
1087 2 0.999287 4.52883 12.216153
1088 2 1.642081 3.128931 12.705023
1089 5 1.821642 3.984317 12.194533
1090 2 11.467715 13.31516 16.320426
1091 2 11.820396 13.315399 14.743241
1092 5 12.147299 13.591056 15.660669
1093 2 19.086062 57.22696 13.091684
1094 2 19.561008 58.395182 14.102417
1095 5 19.363014 57.405851 14.021484
1096 2 22.716752 39.59112 15.772058
1097 2 24.022525 39.980388 16.641151
1098 5 23.184835 40.344099 16.204667
1099 2 4.363968 54.825949 3.961804
1100 2 4.842758 56.300562 4.41806
1101 5 5.141447 55.432463 3.991779
1102 2 31.097776 48.306078 17.835595
1103 2 30.855396 48.704027 16.288086
1104 5 30.669358 48.007542 16.998597
1105 2 33.865329 26.089398 9.51359
1106 2 35.411928 26.170263 9.051652
1107 5 34.732366 25.621382 9.562976
1108 2 1.248199 50.465721 2.686294
1109 2 1.635162 51.749105 1.783475
1110 5 1.77791 50.754521 1.905761
1111 2 30.291237 60.959593 12.980034
1112 2 31.045244 61.193746 11.569877
1113 5 30.719925 60.49304 12.223869
1114 2 20.788069 15.44696 16.970985
1115 2 20.365411 16.81386 16.219428
1116 5 20.618438 16.408544 17.111741
1117 2 31.437621 39.959082 13.063543
1118 2 31.565162 40.745012 11.657149
1119 5 32.027519 40.100074 12.285486
1120 2 20.170469 7.270101 0.998713
1121 2 19.619972 5.764276 1.202031
1122 5 19.348085 6.732593 1.08816
1123 2 5.848379 11.106906 8.177692
1124 2 6.338924 11.744068 6.775806
1125 5 6.560946 11.068905 7.496491
1126 2 21.283628 14.746369 8.725247
1127 2 22.751401 14.470389 8.107693
1128 5 21.821505 14.088103 8.224641
1129 2 14.319083 22.272742 2.697658
1130 2 13.225511 21.373103 1.918783
1131 5 13.351347 22.10308 2.608585
1132 2 14.891847 50.916936 9.607713
1133 2 16.472287 51.205929 9.782607
1134 5 15.658098 51.396097 9.212117
1135 2 22.162328 1.104766 12.324754
1136 2 23.490139 1.608948 11.553642
1137 5 23.142652 1.001693 12.285093
1138 2 21.443048 37.805964 5.011327
1139 2 21.057385 39.20124 5.729912
1140 5 20.861513 38.599648 4.939818
1141 2 35.035258 4.414297 5.7782
1142 2 34.593895 3.787358 7.200888
1143 5 35.223362 3.684617 6.414922
1144 2 27.777801 18.745974 13.978531
1145 2 28.45867 19.264853 15.349326
1146 5 27.605092 18.911652 14.935586
1147 2 34.509093 22.990143 1.217836
1148 2 34.779921 22.205692 2.604625
1149 5 35.071965 22.984632 2.028006
1150 2 32.345623 1.206515 2.918173
1151 2 32.02339 2.476879 1.972533
1152 5 32.514085 1.593224 2.026373
1153 2 29.233296 55.584321 4.644915
1154 2 29.665496 55.272307 3.119219
1155 5 30.011372 55.444462 4.054772
1156 2 23.926443 11.460742 2.076973
1157 2 22.795124 11.88368 1.003131
1158 5 23.180518 12.086206 1.916904
1159 2 4.227128 32.072604 12.157599
1160 2 4.813083 32.31228 10.670619
1161 5 4.940204 31.798499 11.533404
1162 2 10.696302 38.788834 9.802786
1163 2 11.143283 39.714524 8.555709
1164 5 10.350606 39.327167 9.051838
1165 2 28.616339 58.787221 12.553429
1166 2 28.837098 59.609429 13.927159
1167 5 28.327626 59.58753 13.052811
1168 2 27.335794 12.954834 10.80364
1169 2 26.548442 11.623269 11.271515
1170 5 27.377949 12.184408 11.418375
1171 2 15.487227 2.345964 4.035806
1172 2 15.133862 3.548918 5.055576
1173 5 15.642192 2.679892 4.951071
1174 2 32.780849 49.089373 15.097364
1175 2 33.142947 48.560731 13.61368
1176 5 33.093931 49.378794 14.207732
1177 2 4.848236 8.910088 10.822848
1178 2 4.905994 8.946044 12.437551
1179 5 5.450764 9.051753 11.591042
1180 2 12.8278 20.360209 17.210729
1181 2 12.185381 21.824045 17.448171
1182 5 12.510227 20.982477 17.907264
1183 2 27.133031 50.528588 2.948157
1184 2 26.029542 51.179314 1.962885
1185 5 26.404325 50.309626 2.320244
1186 2 16.856579 30.839604 0.90977
1187 2 16.161989 29.380544 0.933966
1188 5 16.987813 29.904377 1.195005
1189 2 26.025436 10.400135 13.57529
1190 2 25.882861 11.991746 13.333748
1191 5 25.687724 11.235308 13.97737
1192 2 5.833238 4.563036 7.89542
1193 2 6.419076 4.392466 9.391948
1194 5 6.370533 5.010169 8.591564
1195 2 29.484953 20.063151 13.418803
1196 2 29.057358 20.10931 11.860943
1197 5 29.819713 19.925889 12.50102
1198 2 10.025071 48.423609 14.887117
1199 2 9.789067 48.060776 16.444213
1200 5 10.421724 48.49962 15.787183
1201 2 27.068635 0.976847 4.901648
1202 2 26.90797 1.160711 3.304064
1203 5 27.574753 1.060961 4.059033
1204 2 26.59818 9.199045 1.00524
1205 2 25.563453 10.440498 0.999896
1206 5 26.49169 10.142728 1.272359
1207 2 31.245143 54.631535 11.648247
1208 2 31.202115 54.352085 13.239458
1209 5 30.727215 54.806167 12.469518
1210 2 28.775338 38.515943 1.117041
1211 2 27.992473 37.264582 1.775155
1212 5 28.568555 37.558874 0.996664
1213 2 15.74448 59.06258 12.720494
1214 2 16.960446 58.528835 11.799386
1215 5 15.979136 58.41113 12.017798
1216 2 9.341591 23.420002 4.555976
1217 2 8.606937 22.323504 3.623307
1218 5 8.483955 23.194785 4.123578
1219 2 3.18303 29.223526 11.250776
1220 2 3.456339 30.596966 10.444016
1221 5 3.490422 30.155227 11.354089
1222 2 29.006241 47.474306 14.378621
1223 2 29.039668 46.955214 15.908759
1224 5 29.318897 46.740965 14.95973
1225 2 17.410151 58.954974 1.203554
1226 2 16.010976 58.174901 0.989808
1227 5 17.017819 58.072022 1.004302
1228 2 28.195273 34.565131 10.410216
1229 2 26.700294 35.156141 10.576463
1230 5 27.456836 34.682492 11.053775
1231 2 35.413079 17.209129 7.016456
1232 2 34.428226 17.977756 5.991189
1233 5 35.374068 17.934553 6.349021
1234 2 26.782706 37.082887 8.166271
1235 2 26.110954 36.322373 6.908391
1236 5 26.054333 36.469609 7.908212
1237 2 11.689044 39.059783 2.01047
1238 2 12.854247 38.253068 2.787263
1239 5 11.984907 38.157415 2.27773
1240 2 14.609948 13.280511 8.40774
1241 2 14.928118 11.699111 8.308548
1242 5 14.697483 12.455082 8.940879
1243 2 22.485734 58.523509 1.686487
1244 2 21.64622 59.710644 0.980921
1245 5 22.566274 59.42314 1.28974
1246 2 11.920671 52.054832 6.59335
1247 2 11.057647 52.828921 5.467352
1248 5 11.966949 52.761845 5.906894
1249 2 9.076406 36.920854 11.702333
1250 2 8.218617 37.629985 10.530485
1251 5 9.08009 37.669935 11.060387
1252 2 17.009306 22.652612 6.83302
1253 2 16.774215 21.455636 5.77289
1254 5 16.312432 22.125787 6.374705
1255 2 13.283291 24.067403 6.485862
1256 2 13.38113 22.456313 6.567782
1257 5 13.115893 23.292406 7.072879
1258 2 31.851366 2.550303 11.123171
1259 2 32.136055 4.141083 11.13948
1260 5 31.61859 3.401311 10.681774
1261 2 28.44225 10.936368 6.588359
1262 2 29.767135 10.219339 7.173548
1263 5 29.37404 10.695561 6.37154
1264 2 11.579878 37.585065 4.632749
1265 2 11.780584 39.18666 4.713422
1266 5 12.218276 38.291444 4.891024
1267 2 22.417724 52.949848 8.169944
1268 2 22.426412 53.581731 9.657406
1269 5 21.858534 53.415247 8.836234
1270 2 10.045717 16.203809 6.251938
1271 2 11.530872 16.730983 5.893751
1272 5 11.00367 16.061172 6.439588
1273 2 9.831883 52.340254 7.224612
1274 2 10.332669 51.455349 8.480818
1275 5 10.035741 51.41937 7.51383
1276 2 7.980709 25.184337 3.271955
1277 2 8.213375 25.548997 4.829128
1278 5 7.848141 25.88973 3.948769
1279 2 17.071742 9.084641 10.422549
1280 2 16.167707 10.06168 9.506027
1281 5 16.777969 10.019956 10.31248
1282 2 13.430222 7.199511 16.984786
1283 2 13.345177 7.770045 18.494473
1284 5 13.376281 8.028788 17.516407
1285 2 9.840513 61.274928 14.846046
1286 2 8.312362 61.11355 14.345439
1287 5 9.279101 61.137808 14.046518
1288 2 1.520481 27.609697 7.422981
1289 2 1.474261 29.016704 6.629197
1290 5 1.895417 28.096557 6.651216
1291 2 9.302126 34.57419 14.838107
1292 2 8.388089 34.106845 16.086314
1293 5 8.370925 34.415199 15.12239
1294 2 1.003968 46.028304 14.202014
1295 2 1.000355 44.659214 15.060778
1296 5 1.528484 45.495456 14.845587
1297 2 11.559945 45.266762 14.051351
1298 2 10.443083 44.258113 13.462165
1299 5 11.419179 44.350616 13.713576
1300 2 14.507353 51.672951 2.919982
1301 2 15.108857 50.555136 3.920271
1302 5 14.752749 50.719803 2.987212
1303 2 14.98334 42.158351 9.988157
1304 2 13.749203 41.318181 9.369353
1305 5 14.427007 42.046003 9.181247
1306 2 28.35132 25.726722 8.468621
1307 2 26.770842 25.390493 8.499178
1308 5 27.676909 25.124967 8.863958
1309 2 5.943332 44.391312 2.081617
1310 2 5.310118 43.369775 1.001155
1311 5 5.228099 43.725694 1.945147
1312 2 23.393293 16.616418 7.476466
1313 2 23.685889 16.531659 5.889299
1314 5 23.542779 15.987876 6.730932
1315 2 13.255341 33.094534 18.01521
1316 2 11.975134 32.930073 17.042626
1317 5 12.5002 33.583331 17.610153
1318 2 24.07858 44.211438 6.856602
1319 2 24.457976 45.74105 6.498493
1320 5 24.829037 44.807563 6.622764
1321 2 3.762125 16.917594 5.076279
1322 2 3.747099 16.232109 3.612797
1323 5 3.274581 16.276297 4.506833
1324 2 10.809356 31.961916 3.313137
1325 2 9.895088 33.190865 2.797681
1326 5 10.058623 32.195225 2.717152
1327 2 33.209402 1.899345 8.681191
1328 2 31.840253 1.703899 7.845052
1329 5 32.299979 2.260184 8.554789
1330 2 29.341423 35.657958 2.433382
1331 2 30.284429 36.954449 2.229063
1332 5 30.271752 35.97931 2.500115
1333 2 28.979356 56.975217 11.363808
1334 2 30.571506 56.70011 11.328177
1335 5 29.768064 56.812163 11.93353
1336 2 2.45123 56.969617 4.78564
1337 2 3.022908 56.781946 3.285687
1338 5 2.666537 56.295281 4.098512
1339 2 4.143296 55.79882 15.603753
1340 2 4.285504 55.788429 13.993919
1341 5 3.711671 56.097339 14.768398
1342 2 13.927314 15.293885 3.438776
1343 2 13.37296 15.949007 4.808229
1344 5 13.139309 15.345347 4.030072
1345 2 8.992686 36.305196 16.186951
1346 2 8.383064 36.587373 14.717042
1347 5 9.178584 36.743738 15.323034
1348 2 7.617525 29.058738 15.646886
1349 2 8.636394 28.809226 16.876334
1350 5 7.757818 29.233937 16.607539
1351 2 13.75736 29.583914 4.568112
1352 2 12.537643 30.47841 5.137379
1353 5 13.237525 30.407251 4.409623
1354 2 6.595886 33.931057 13.83786
1355 2 6.237123 33.944 15.413619
1356 5 5.864932 33.789565 14.485098
1357 2 25.445781 8.397546 10.429254
1358 2 24.836215 9.463032 11.480476
1359 5 24.810719 9.147106 10.519191
1360 2 0.999864 36.790405 9.439764
1361 2 2.46134 37.44044 9.670925
1362 5 1.952737 36.571066 9.570739
1363 2 5.383433 5.16076 3.691577
1364 2 4.304246 3.978948 3.916457
1365 5 4.923854 4.628794 4.383697
1366 2 2.970644 52.185657 10.368876
1367 2 3.696743 53.53836 9.864028
1368 5 2.849696 52.987228 9.80666
1369 2 26.58788 10.39392 9.290143
1370 2 26.424009 10.921156 7.771241
1371 5 26.579175 11.205988 8.730053
1372 2 33.839674 22.964456 14.712658
1373 2 35.064387 21.930955 14.922057
1374 5 34.132021 22.03768 14.542808
1375 2 17.024512 29.949473 9.896305
1376 2 17.486606 30.735734 8.562079
1377 5 16.921671 29.973829 8.915457
1378 2 25.540036 33.777179 1.390296
1379 2 26.066498 35.298575 1.248562
1380 5 26.353801 34.331025 1.324922
1381 2 26.772035 2.718937 11.353192
1382 2 27.979706 3.238832 12.292945
1383 5 26.973344 3.192436 12.194919
1384 2 15.329369 32.458913 8.217133
1385 2 15.679924 31.656701 9.575611
1386 5 15.448105 31.555612 8.595525
1387 2 31.524104 44.394234 14.37804
1388 2 30.084295 44.050326 13.729526
1389 5 30.699804 44.800016 14.018734
1390 2 19.660368 57.85914 6.81649
1391 2 20.635913 57.25345 5.679235
1392 5 20.166719 58.090243 6.001977
1393 2 3.365372 44.196175 17.288139
1394 2 4.087336 43.073138 16.377397
1395 5 3.833841 43.328695 17.323419
1396 2 20.687688 21.64494 15.416267
1397 2 20.066832 23.126941 15.58978
1398 5 19.852033 22.1658 15.356122
1399 2 22.608427 42.470639 16.784133
1400 2 23.227125 43.915862 17.158884
1401 5 22.940642 43.02009 17.533111
1402 2 27.582996 4.262353 8.924861
1403 2 28.140257 4.410395 10.434642
1404 5 28.047643 4.87682 9.541111
1405 2 23.866852 6.645641 3.801926
1406 2 23.500766 6.265396 2.274415
1407 5 23.658318 5.89111 3.20157
1408 2 9.579298 50.306529 13.378475
1409 2 8.987745 51.472892 14.327979
1410 5 8.833331 50.944271 13.478718
1411 2 19.358099 27.759584 7.415045
1412 2 17.937959 28.514416 7.574188
1413 5 18.43392 27.789466 7.071199
1414 2 13.980066 28.867916 8.262931
1415 2 13.907229 29.421913 6.746462
1416 5 14.397219 29.49813 7.628861
1417 2 26.923591 42.678763 7.202107
1418 2 26.750889 43.466092 8.602887
1419 5 26.25913 42.968952 7.871072
1420 2 9.426398 44.396646 1.723794
1421 2 7.928726 44.651023 1.17228
1422 5 8.580247 44.865805 1.916536
1423 2 5.871704 30.010084 3.858107
1424 2 6.354273 30.053124 5.399914
1425 5 5.888034 29.492564 4.697831
1426 2 20.585414 25.344597 15.587593
1427 2 21.772035 25.56648 14.513072
1428 5 21.399129 24.934142 15.209936
1429 2 18.163712 47.694799 3.097275
1430 2 19.108496 48.972096 3.39357
1431 5 18.789376 48.08191 3.754482
1432 2 11.721819 29.197249 6.830452
1433 2 12.236461 28.345346 5.557149
1434 5 11.438357 28.544905 6.146838
1435 2 20.664486 42.998659 12.143808
1436 2 21.767694 44.125909 11.791481
1437 5 21.618089 43.13457 11.930735
1438 2 5.33765 18.234594 4.288259
1439 2 3.945795 19.030265 4.492076
1440 5 4.599425 18.676055 3.805177
1441 2 29.742312 16.750891 9.053724
1442 2 28.723734 17.669831 9.908092
1443 5 29.443459 17.680161 9.196462
1444 2 4.020302 46.611446 6.856872
1445 2 4.502846 46.255741 5.356032
1446 5 4.155695 45.867084 6.223765
1447 2 24.430239 12.579646 15.233316
1448 2 24.377434 13.514752 13.916242
1449 5 24.021805 12.666897 14.33956
1450 2 15.806241 59.676983 2.586541
1451 2 15.308714 59.459442 4.108724
1452 5 15.449915 59.005368 3.215188
1453 2 34.239057 11.717667 9.540076
1454 2 33.940719 10.859438 8.203538
1455 5 33.697828 11.698142 8.715503
1456 2 22.801617 33.351428 11.959052
1457 2 24.188142 32.975045 12.699175
1458 5 23.68055 33.711592 12.225491
1459 2 8.581092 54.892009 12.97001
1460 2 9.31498 55.088403 11.543569
1461 5 9.464253 54.974259 12.538163
1462 2 35.421456 42.404387 9.295723
1463 2 35.380124 41.905376 7.759111
1464 5 35.121038 41.670436 8.708956
1465 2 30.647974 31.340561 13.606642
1466 2 30.115274 30.899467 15.067314
1467 5 30.502414 30.562194 14.19502
1468 2 6.939237 16.123897 1.05588
1469 2 7.969547 16.012447 2.296016
1470 5 7.871856 15.907688 1.294013
1471 2 6.113294 23.329365 13.477402
1472 2 6.447241 23.526736 11.908511
1473 5 5.702314 23.467003 12.591184
1474 2 14.426195 16.570973 1.643077
1475 2 15.94242 16.033876 1.486605
1476 5 15.274111 16.439112 2.129781
1477 2 2.166781 13.89891 5.315359
1478 2 1.702959 14.128802 3.784374
1479 5 2.46999 14.230213 4.436989
1480 2 17.781542 22.078277 10.5651
1481 2 17.503132 22.170923 8.975823
1482 5 17.081057 22.251185 9.892304
1483 2 31.623663 28.936914 5.509937
1484 2 32.643451 30.180592 5.351215
1485 5 32.414571 29.369037 5.911142
1486 2 3.606178 36.383052 12.725757
1487 2 3.401263 37.575399 11.654209
1488 5 3.818574 37.328912 12.542817
1489 2 27.380086 21.700752 13.926793
1490 2 27.922923 22.067685 12.449436
1491 5 27.670207 21.3085 13.069355
1492 2 10.706274 42.656189 4.206626
1493 2 10.736261 43.804593 5.343361
1494 5 10.967638 43.591281 4.381337
1495 2 35.370654 24.896338 6.321583
1496 2 35.059641 24.340917 7.80707
1497 5 35.385218 24.085502 6.883333
1498 2 6.170808 6.984178 11.418144
1499 2 6.399663 7.344847 12.97681
1500 5 6.303234 6.587876 12.311811
1501 2 17.295322 56.159934 2.919681
1502 2 16.256694 56.107021 1.68261
1503 5 16.469433 56.562945 2.560905
1504 2 33.085911 28.47856 2.665831
1505 2 33.39168 26.95634 2.217226
1506 5 32.868625 27.536287 2.861122
1507 2 32.201148 46.95501 10.558357
1508 2 32.161115 47.234447 12.149648
1509 5 31.800084 46.649802 11.406429
1510 2 14.806587 22.23475 16.581052
1511 2 13.926343 22.325 15.228675
1512 5 13.965599 21.934555 16.161702
1513 2 4.927472 27.199748 11.344884
1514 2 4.951325 27.355413 9.736439
1515 5 4.407794 27.527109 10.572873
1516 2 21.500472 13.066999 4.781494
1517 2 20.7524 14.498628 4.729311
1518 5 21.163658 13.805726 5.341913
1519 2 5.620675 41.055464 1.04425
1520 2 7.218689 40.814141 1.041216
1521 5 6.491442 41.516836 0.998085
1522 2 6.742461 47.997799 14.457541
1523 2 8.200462 47.304953 14.379482
1524 5 7.205712 47.12704 14.437343
1525 2 7.894293 33.83345 2.05637
1526 2 7.882233 32.381781 2.766587
1527 5 7.301314 33.139604 2.430783
1528 2 30.123399 47.31076 4.206293
1529 2 30.358917 48.535449 3.178402
1530 5 30.682751 48.105225 4.03547
1531 2 7.426241 18.934512 11.534889
1532 2 6.948714 20.280203 12.291843
1533 5 6.724884 19.62811 11.550761
1534 2 27.421003 45.966109 14.162729
1535 2 27.910447 44.447479 13.905624
1536 5 28.093352 45.4196 13.691024
1537 2 32.917942 37.752257 6.902554
1538 2 32.89224 36.991441 5.476934
1539 5 32.326716 37.292143 6.2607
1540 2 34.460632 13.684193 8.187893
1541 2 32.849321 13.686975 8.312644
1542 5 33.652225 14.21653 7.997299
1543 2 26.94821 23.138039 1.707465
1544 2 25.541087 22.392054 1.432866
1545 5 26.542478 22.262359 1.503025
1546 2 19.034229 56.152604 11.184447
1547 2 18.048257 56.379785 9.924231
1548 5 18.517366 56.836472 10.696177
1549 2 29.924779 24.200857 8.630323
1550 2 30.449654 22.749794 8.149889
1551 5 29.643468 23.359943 8.197935
1552 2 30.356664 52.670224 12.100581
1553 2 30.088676 52.126191 13.598616
1554 5 30.63984 51.993406 12.760097
1555 2 24.137999 26.160877 1.007835
1556 2 24.032302 27.489571 1.92178
1557 5 24.558445 27.035358 1.185987
1558 2 1.002214 7.138274 13.219971
1559 2 1.674733 7.203957 11.751877
1560 5 1.547236 6.628498 12.57475
1561 2 32.371759 20.729164 8.34162
1562 2 31.961498 21.600675 7.043911
1563 5 32.659297 21.477515 7.766708
1564 2 33.968927 6.447652 1.025937
1565 2 35.031826 6.160546 2.209031
1566 5 34.737732 6.831482 1.510546
1567 2 18.095358 30.846708 13.151159
1568 2 17.770761 31.665286 11.795997
1569 5 18.253594 30.861645 12.177521
1570 2 12.165922 35.499799 8.862933
1571 2 11.59735 34.005274 9.097492
1572 5 12.039848 34.798123 9.544833
1573 2 13.305116 44.951203 6.031031
1574 2 12.674689 44.965666 4.542996
1575 5 12.803622 45.506983 5.388501
1576 2 7.799244 21.049804 6.899561
1577 2 8.025562 20.616721 5.359069
1578 5 8.454827 21.058174 6.162423
1579 2 16.845557 2.129245 13.360061
1580 2 18.341646 1.9997 12.762709
1581 5 17.747469 1.778456 13.551716
1582 2 20.993252 56.93572 1.339707
1583 2 19.728264 57.223332 2.303543
1584 5 20.25113 57.563921 1.506588
1585 2 10.18573 36.196418 5.77334
1586 2 10.732907 35.461909 7.104875
1587 5 10.98723 35.792172 6.182502
1588 2 21.904425 4.65553 2.757061
1589 2 21.908018 5.142145 4.298193
1590 5 21.337572 5.036935 3.468706
1591 2 23.793127 60.334951 9.253778
1592 2 23.640992 60.772486 7.705452
1593 5 24.15621 60.936345 8.561155
1594 2 30.440169 21.888164 16.777059
1595 2 30.025894 20.426785 17.329005
1596 5 30.637141 20.925038 16.694459
1597 2 20.735287 18.005444 7.5748
1598 2 20.870794 17.829913 9.17565
1599 5 21.16278 18.382944 8.379768
1600 2 27.224112 2.935541 14.729104
1601 2 26.901985 2.036594 16.032954
1602 5 26.74675 2.128975 15.037015
1603 2 18.46782 32.573323 1.469523
1604 2 18.915546 34.056522 1.009567
1605 5 18.149331 33.395351 1.026728
1606 2 30.738219 21.077821 2.641786
1607 2 30.273665 20.817085 1.115974
1608 5 30.002257 21.225214 2.001579
1609 2 16.688942 10.640899 13.512494
1610 2 17.059627 11.866964 12.526973
1611 5 17.022622 10.85887 12.610066
1612 2 2.998301 35.560702 7.782173
1613 2 3.99382 35.098992 6.595724
1614 5 3.735828 35.866712 7.202825
1615 2 4.733894 30.28284 7.586164
1616 2 5.852728 29.117245 7.547475
1617 5 5.702498 30.117062 7.499249
1618 2 29.641005 16.245072 3.736065
1619 2 28.954631 15.362073 2.569404
1620 5 29.55692 15.328049 3.382188
1621 2 10.863951 12.561904 11.128441
1622 2 11.893354 13.323702 12.114284
1623 5 11.423364 13.369424 11.218994
1624 2 25.724564 58.348355 2.144376
1625 2 26.085572 58.364276 3.719595
1626 5 25.870012 58.943235 2.917805
1627 2 4.638901 17.076868 14.082801
1628 2 5.672973 17.900229 15.012675
1629 5 5.069204 17.088929 14.970452
1630 2 24.283247 38.932823 5.816655
1631 2 23.779113 38.517251 7.294845
1632 5 23.94589 38.17859 6.355685
1633 2 25.639427 3.702308 7.904871
1634 2 26.888118 2.778222 7.459077
1635 5 25.963945 2.771271 7.871852
1636 2 25.055238 28.559287 17.804429
1637 2 25.355638 27.796633 16.411584
1638 5 25.675319 27.932149 17.362356
1639 2 31.218549 18.725152 11.301751
1640 2 31.439305 17.586276 10.176529
1641 5 31.308199 17.752077 11.166402
1642 2 9.213629 53.482863 4.293435
1643 2 8.41108 53.673396 5.683221
1644 5 8.311905 53.588014 4.679527
1645 2 18.528109 8.140467 7.812832
1646 2 18.198186 9.520647 8.586235
1647 5 17.913856 8.557098 8.462711
1648 2 2.968215 47.395335 15.310152
1649 2 2.292589 47.680949 16.750238
1650 5 2.670899 46.962839 16.145485
1651 2 23.392133 9.348438 2.357495
1652 2 23.687109 10.036713 3.789683
1653 5 22.962001 9.788767 3.128422
1654 2 6.559129 2.648793 6.590065
1655 2 6.202688 2.96488 5.045742
1656 5 6.243947 3.3558 5.978483
1657 2 11.289619 52.148663 12.380441
1658 2 10.651338 52.131455 10.895787
1659 5 10.725241 52.661742 11.754775
1660 2 7.696128 9.09057 2.983963
1661 2 7.820938 9.479564 1.420312
1662 5 8.281091 9.527573 2.32058
1663 2 3.613117 31.618506 5.950037
1664 2 3.742731 32.240025 7.436244
1665 5 3.978913 32.378469 6.46178
1666 2 27.320143 16.418726 3.712229
1667 2 27.342671 16.04883 5.285304
1668 5 27.596801 15.727695 4.35966
1669 2 27.741352 27.82026 8.230052
1670 2 27.110554 29.287985 8.474538
1671 5 27.598782 28.517481 8.91327
1672 2 17.612024 2.778633 3.695358
1673 2 17.863852 3.204397 5.23393
1674 5 17.566731 3.536617 4.325153
1675 2 17.23961 61.237265 13.635966
1676 2 17.918416 60.403155 12.429575
1677 5 17.462801 60.32628 13.330148
1678 2 4.250025 3.548209 10.006206
1679 2 4.329709 3.798692 11.600823
1680 5 3.773305 3.952565 10.7694
1681 2 21.930791 18.68328 18.653587
1682 2 22.172799 18.686664 17.055677
1683 5 21.837856 18.137406 17.837122
1684 2 32.420107 23.900229 1.033777
1685 2 31.743535 22.972321 2.170937
1686 5 31.86195 23.098909 1.173701
1687 2 14.522951 44.545018 7.809204
1688 2 14.588844 44.244721 9.395828
1689 5 15.057355 44.10179 8.510055
1690 2 19.960764 51.39283 5.678398
1691 2 19.619762 49.847794 5.349039
1692 5 20.230349 50.622953 5.123561
1693 2 21.550639 57.563013 3.425944
1694 2 22.640176 57.367227 4.60343
1695 5 22.515292 57.456508 3.60295
1696 2 27.603948 52.015631 16.449524
1697 2 28.777538 52.605621 15.507987
1698 5 27.955869 52.845326 16.048291
1699 2 20.342151 24.981999 0.995012
1700 2 19.407626 25.814236 2.017725
1701 5 19.926127 25.86302 1.149793
1702 2 28.022193 10.792726 14.543707
1703 2 27.536247 12.318098 14.765051
1704 5 27.85349 11.47834 15.232695
1705 2 24.575846 48.214667 11.647062
1706 2 23.635092 47.636409 10.467022
1707 5 24.335828 47.393488 11.155851
1708 2 1.001218 55.407457 8.931277
1709 2 1.437917 56.3997 7.732677
1710 5 1.760168 55.673641 8.359989
1711 2 1.662602 53.775301 6.439279
1712 2 1.559364 53.482221 8.025262
1713 5 1.384875 53.10122 7.103894
1714 2 31.114616 11.133745 13.472341
1715 2 30.112788 11.753281 12.36581
1716 5 30.179711 11.126164 13.1575
1717 2 14.640477 20.998019 5.50681
1718 2 15.073711 20.532069 4.021181
1719 5 14.42111 21.096795 4.55007
1720 2 16.929199 1.237752 11.25902
1721 2 17.808267 1.249302 9.902922
1722 5 17.812967 1.0077 10.885843
1723 2 27.036531 13.435789 1.251754
1724 2 25.836096 12.487273 1.772494
1725 5 26.16353 13.052099 0.999005
1726 2 16.862933 43.059183 2.424484
1727 2 17.214909 42.092676 1.17794
1728 5 16.577789 42.242592 1.950035
1729 2 12.559363 36.362225 15.063229
1730 2 13.14366 37.315217 16.230405
1731 5 13.301982 36.465012 15.704465
1732 2 34.123959 29.907097 11.103207
1733 2 32.79345 29.0019 10.954014
1734 5 33.787619 28.98053 11.142954
1735 2 3.733395 6.596742 6.682608
1736 2 3.725341 5.111689 7.320141
1737 5 3.260349 5.731144 6.668538
1738 2 13.477515 18.047979 6.143869
1739 2 12.386255 19.042538 5.486679
1740 5 13.234341 18.998118 6.037409
1741 2 16.118604 18.940217 12.982653
1742 2 16.497122 18.643169 11.439805
1743 5 15.735825 18.830198 12.080097
1744 2 32.306601 30.842253 12.255119
1745 2 32.301924 31.737674 10.909721
1746 5 31.869603 30.95095 11.377367
1747 2 19.838568 16.234003 5.837303
1748 2 19.53084 17.276006 4.64088
1749 5 20.136271 17.080916 5.42823
1750 2 19.637108 61.025748 17.266988
1751 2 20.309118 59.558591 17.355014
1752 5 20.408148 60.488287 16.967217
1753 2 4.69087 28.584975 13.059368
1754 2 5.205473 29.923502 13.804637
1755 5 5.491266 29.028546 13.427936
1756 2 25.309424 17.225421 4.314955
1757 2 24.557514 18.54329 3.758404
1758 5 25.03611 17.692675 3.49021
1759 2 11.78181 37.627628 8.286157
1760 2 12.290382 38.55308 7.062724
1761 5 11.691635 37.777006 7.315185
1762 2 14.505126 24.684795 4.366545
1763 2 14.81014 23.285858 5.116103
1764 5 14.226738 23.740164 4.424891
1765 2 3.358665 35.368868 3.362119
1766 2 3.474449 35.386176 1.750229
1767 5 2.916019 35.685884 2.539443
1768 2 17.580221 50.626325 5.570087
1769 2 17.403399 50.444103 7.166152
1770 5 16.955928 50.314732 6.267509
1771 2 2.330487 50.595648 6.898061
1772 2 2.371935 51.331461 8.336379
1773 5 2.707756 51.367975 7.382221
1774 2 33.430547 54.486746 12.192562
1775 2 34.444674 55.722469 12.430116
1776 5 33.518459 55.466074 12.112444
1777 2 33.670118 32.133906 14.72459
1778 2 34.516868 32.155303 16.100981
1779 5 34.465824 32.522727 15.159216
1780 2 5.144389 38.294505 10.157867
1781 2 5.338841 38.685134 11.713982
1782 5 5.815101 38.373431 10.876997
1783 2 6.447508 42.267562 15.145962
1784 2 5.538429 43.469128 14.561404
1785 5 6.043447 43.138226 15.3738
1786 2 19.370292 33.378716 18.046149
1787 2 19.227898 31.770205 18.111806
1788 5 19.561066 32.545753 17.55319
1789 2 20.801576 10.649977 14.836214
1790 2 20.16363 10.981556 16.283617
1791 5 20.490714 10.239614 15.677759
1792 2 13.28395 32.278661 12.693233
1793 2 12.873433 33.638959 11.923194
1794 5 13.582722 32.921781 12.007403
1795 2 12.369658 8.590012 15.455906
1796 2 13.362096 8.757975 14.191489
1797 5 13.260167 8.344357 15.109671
1798 2 18.663456 51.439112 8.66607
1799 2 18.64465 50.672696 10.088795
1800 5 19.160289 51.324064 9.510553
1801 2 10.400702 2.453458 8.135989
1802 2 10.138628 3.476081 9.359694
1803 5 10.692088 3.310304 8.528595
1804 2 12.425697 12.118645 8.510949
1805 2 12.840292 12.138486 10.072875
1806 5 12.230686 11.710357 9.387593
1807 2 26.718115 52.86289 3.329014
1808 2 25.623778 53.466721 2.30446
1809 5 25.779017 53.155928 3.255163
1810 2 20.873424 3.804433 12.20886
1811 2 21.436627 4.976797 11.249558
1812 5 20.602106 4.579559 11.662236
1813 2 7.633516 53.326768 11.65021
1814 2 8.115065 53.823642 10.189688
1815 5 8.256939 53.128642 10.911752
1816 2 17.665015 6.967808 11.993987
1817 2 16.165565 6.79451 11.416481
1818 5 16.809252 7.439262 11.857492
1819 2 19.875843 24.619563 13.629223
1820 2 18.694171 25.330421 14.471972
1821 5 18.968841 25.000506 13.555326
1822 2 20.835296 6.040264 13.379186
1823 2 19.332848 5.62595 13.806844
1824 5 19.886157 6.290756 13.281097
1825 2 23.19104 14.472875 4.811602
1826 2 22.880019 14.140548 3.260886
1827 5 22.794427 14.840862 3.98667
1828 2 18.483443 14.085287 6.381416
1829 2 19.91682 14.104464 7.127713
1830 5 19.315658 13.571807 6.511752
1831 2 34.999083 10.380379 4.831508
1832 2 35.098422 10.963775 6.335395
1833 5 34.839658 11.183478 5.381824
1834 2 21.562752 24.809258 12.11508
1835 2 23.130902 24.555953 11.817359
1836 5 22.467228 25.170964 12.271039
1837 2 14.70187 33.518261 13.883624
1838 2 14.204877 34.982703 14.352989
1839 5 14.198648 34.315158 13.592153
1840 2 28.430148 26.905191 2.204105
1841 2 28.954404 27.052488 3.725734
1842 5 28.826799 27.53921 2.847471
1843 2 1.357159 39.342488 3.483842
1844 2 2.585086 39.761938 2.520435
1845 5 2.003792 40.062574 3.292602
1846 2 11.433244 60.314189 13.463893
1847 2 11.513097 61.279977 12.170536
1848 5 11.646484 61.232342 13.172766
1849 2 13.270315 32.515892 7.377587
1850 2 11.91077 33.318971 7.033204
1851 5 12.654148 32.752612 6.64442
1852 2 14.631256 47.742477 8.759675
1853 2 14.557168 46.72297 7.507871
1854 5 14.123788 47.528548 7.941175
1855 2 4.1267 6.898064 12.227917
1856 2 4.110015 7.03505 13.838151
1857 5 3.60895 7.256905 12.987127
1858 2 12.787161 2.42263 11.973741
1859 2 11.949143 3.405654 11.002512
1860 5 11.949021 2.502537 11.459574
1861 2 17.505255 26.236012 0.999979
1862 2 18.222438 27.589888 1.514339
1863 5 17.466039 26.940491 1.689473
1864 2 6.297897 26.130554 6.796128
1865 2 6.49413 27.05252 8.108898
1866 5 6.961913 26.431551 7.460744
1867 2 22.701474 4.926063 13.718864
1868 2 22.041411 5.12619 15.180425
1869 5 22.854725 5.320426 14.610056
1870 2 14.733716 14.30952 13.209254
1871 2 15.591338 14.892539 11.96971
1872 5 15.583282 14.751292 12.971963
1873 2 8.350074 57.029354 11.177821
1874 2 9.040285 57.692674 9.875703
1875 5 9.19971 57.101494 10.681691
1876 2 15.878056 36.724385 15.290635
1877 2 17.035327 36.202282 16.290648
1878 5 16.855713 36.66348 15.40772
1879 2 5.159222 21.452451 11.51148
1880 2 4.625197 21.584843 13.031081
1881 5 4.506753 21.089562 12.156326
1882 2 5.541502 50.642373 12.80102
1883 2 4.782929 52.061232 12.648372
1884 5 5.167587 51.39966 13.310858
1885 2 19.247656 9.509477 0.999806
1886 2 18.143452 8.496772 1.60566
1887 5 18.277267 9.366131 1.104825
1888 2 4.477523 26.054525 8.027456
1889 2 3.26824 25.320896 7.245588
1890 5 3.973578 26.04384 7.179425
1891 2 9.552182 20.552589 2.232719
1892 2 10.253468 19.373587 3.087147
1893 5 10.16746 19.784331 2.16605
1894 2 14.772725 57.430764 4.753866
1895 2 14.646622 55.928416 5.336055
1896 5 15.291513 56.622859 4.980537
1897 2 10.967611 7.666821 14.033821
1898 2 11.646573 8.074739 12.625096
1899 5 11.639388 7.387025 13.367742
1900 2 31.730526 41.344707 14.757459
1901 2 30.597792 42.398967 15.223662
1902 5 31.176185 41.624522 15.524036
1903 2 29.065339 57.058206 16.416275
1904 2 30.029259 56.150789 17.343286
1905 5 29.18553 56.150757 16.784135
1906 2 22.125307 50.570697 10.516185
1907 2 21.168852 51.833311 10.195408
1908 5 21.193342 50.890749 10.563518
1909 2 14.935153 1.888701 7.529456
1910 2 13.990643 0.976931 8.472043
1911 5 14.883873 1.022111 7.998096
1912 2 12.36094 29.997218 14.78194
1913 2 13.119414 29.689825 16.175541
1914 5 12.512332 30.341128 15.694101
1915 2 10.264119 40.476634 6.69101
1916 2 10.233914 40.700329 5.090715
1917 5 10.52734 41.10002 5.973141
1918 2 22.203732 3.054301 6.768256
1919 2 21.807248 1.52058 6.448268
1920 5 21.718009 2.271484 7.121102
1921 2 32.346803 38.407928 10.520528
1922 2 32.060013 37.643393 9.125847
1923 5 31.853629 38.472484 9.668563
1924 2 4.220002 57.430643 10.316901
1925 2 5.024933 58.371122 9.27792
1926 5 4.228347 58.325035 9.900699
1927 2 12.998359 1.944843 14.111159
1928 2 14.001401 1.968079 15.378149
1929 5 13.451474 1.371028 14.773469
1930 2 21.704153 10.522149 7.926457
1931 2 20.614694 9.80233 8.878736
1932 5 21.040693 10.68823 8.63742
1933 2 25.065434 12.715086 17.598762
1934 2 26.296646 12.596357 16.55861
1935 5 25.631983 13.233329 16.979345
1936 2 10.175744 32.755754 15.794439
1937 2 10.705679 31.421365 15.052503
1938 5 10.098877 32.22679 14.965271
1939 2 31.587937 22.398748 14.683757
1940 2 31.366023 23.442556 13.470038
1941 5 31.884019 22.626588 13.77071
1942 2 32.394383 36.682405 18.027459
1943 2 33.487085 37.36949 18.999987
1944 5 32.626766 36.836868 18.973699
1945 2 20.353968 1.564034 13.588365
1946 2 19.713742 1.36165 15.058415
1947 5 19.74457 0.994854 14.115527
1948 2 1.673348 6.548056 15.750651
1949 2 2.792761 6.949056 16.845187
1950 5 2.567544 6.950599 15.858373
1951 2 11.471254 28.947718 17.530126
1952 2 11.238502 28.53896 15.983957
1953 5 10.83194 29.011375 16.78149
1954 2 7.724984 25.721369 15.275886
1955 2 8.692084 25.960959 16.548369
1956 5 8.347939 26.366377 15.687133
1957 2 9.953982 18.105082 4.854747
1958 2 10.411464 18.572487 6.33263
1959 5 9.893943 18.843596 5.506071
1960 2 25.599305 56.466237 1.007793
1961 2 24.789721 55.068092 1.048553
1962 5 25.701057 55.495852 1.153502
1963 2 8.000498 61.263985 6.099627
1964 2 8.187719 61.071589 7.69331
1965 5 8.206641 60.598894 6.798476
1966 2 6.968199 24.22992 7.674852
1967 2 6.526109 24.726929 9.147752
1968 5 6.196599 24.315726 8.283541
1969 2 32.124838 4.060122 7.102031
1970 2 32.398079 4.855412 5.721905
1971 5 32.419419 4.925632 6.73143
1972 2 25.465242 42.484432 2.720963
1973 2 23.854321 42.613957 2.728331
1974 5 24.707564 42.968745 2.315258
1975 2 23.235627 41.426863 10.606722
1976 2 23.898911 41.832411 9.189866
1977 5 23.325527 42.162702 9.955808
1978 2 31.173145 47.837291 14.272465
1979 2 32.335149 46.754899 14.572581
1980 5 31.390123 46.875826 14.230779
1981 2 16.836195 28.052926 10.991396
1982 2 16.790508 27.834769 9.390703
1983 5 16.226146 27.942006 10.224084
1984 2 24.207899 4.234077 11.98557
1985 2 23.633394 4.427388 10.487414
1986 5 23.757853 3.765614 11.243121
1987 2 26.464746 25.515988 2.542652
1988 2 25.410742 24.309662 2.75654
1989 5 25.649029 25.101907 2.173364
1990 2 32.373113 22.359374 4.181384
1991 2 32.807682 20.836629 4.504329
1992 5 32.512439 21.713766 4.914194
1993 2 14.188115 32.308373 16.142685
1994 2 14.384435 33.903892 16.309039
1995 5 13.819581 33.183907 15.876501
1996 2 6.754077 56.098397 13.152677
1997 2 6.366272 55.27547 14.488453
1998 5 6.362892 55.252627 13.476527
1999 2 21.377671 55.372668 3.469404
2000 2 21.149282 54.402078 2.19752
2001 5 20.798548 55.216118 2.686244
2002 2 26.956938 53.683746 5.957102
2003 2 28.122039 53.698348 4.837182
2004 5 27.498581 53.10497 5.369843
2005 2 13.535737 50.947382 15.412257
2006 2 13.704807 52.538714 15.18648
2007 5 14.022393 51.625638 14.88655
2008 2 16.09455 48.497441 4.557742
2009 2 16.98945 49.477844 3.635864
2010 5 16.304181 48.733018 3.622975
2011 2 7.517552 13.285107 12.933073
2012 2 6.484594 14.38981 12.363403
2013 5 7.382774 14.254611 12.810079
2014 2 17.745427 16.151813 6.49679
2015 2 16.915027 17.319655 5.749478
2016 5 16.903317 16.665109 6.521463
2017 2 19.875134 1.986515 10.097076
2018 2 19.351029 3.511652 10.202759
2019 5 20.134385 2.925767 9.942722
2020 2 21.108505 28.190791 2.972235
2021 2 19.531483 28.110785 3.316465
2022 5 20.302493 27.631411 2.868948
2023 2 23.298047 39.472267 9.216614
2024 2 24.81878 39.876176 9.585564
2025 5 23.966734 39.461931 9.94186
2026 2 25.977786 45.511 8.360734
2027 2 25.432799 46.087552 9.768736
2028 5 26.231774 46.047651 9.148596
2029 2 30.14799 22.704674 10.767125
2030 2 30.761366 21.898759 12.026556
2031 5 29.9129 22.105616 11.514851
2032 2 5.397675 46.299633 13.439016
2033 2 4.096875 45.465904 13.913055
2034 5 5.063133 45.677543 14.127722
2035 2 28.497356 13.570678 4.174603
2036 2 27.350776 12.802214 3.333942
2037 5 27.768464 13.704522 3.523425
2038 2 18.980592 31.456265 15.73265
2039 2 17.613165 30.647155 16.028254
2040 5 18.602479 30.696957 16.236351
2041 2 17.495458 20.628443 13.589588
2042 2 16.834673 20.862512 12.133404
2043 5 17.637554 20.488616 12.623416
2044 2 35.100872 15.741907 8.620839
2045 2 35.13729 15.191373 10.139879
2046 5 34.680724 15.837282 9.508313
2047 2 9.599965 57.175527 5.017656
2048 2 9.012805 57.438454 6.500225
2049 5 9.859727 57.356223 5.952056
2050 2 9.062416 43.059149 14.969638
2051 2 9.426933 43.250607 16.532445
2052 5 9.745294 43.41568 15.585912
2053 2 4.563427 27.955101 6.198471
2054 2 5.066072 27.269003 4.824239
2055 5 4.270982 27.679269 5.297569
2056 2 15.787999 38.319461 4.338052
2057 2 15.363383 39.060625 5.710012
2058 5 16.119168 38.912958 5.053118
2059 2 1.759792 24.95558 3.928024
2060 2 1.278862 25.281528 2.419926
2061 5 0.991442 25.261624 3.390246
2062 2 10.94246 59.233357 4.273651
2063 2 11.082892 60.367781 5.416129
2064 5 10.472647 59.98636 4.704338
2065 2 1.004051 46.771277 7.949063
2066 2 1.983752 46.419616 9.185354
2067 5 1.134815 46.150318 8.704405
2068 2 1.233673 57.772491 1.907204
2069 2 1.011667 57.996906 3.492211
2070 5 1.009881 58.45092 2.587559
2071 2 13.887692 36.859643 9.680117
2072 2 14.694335 38.07564 10.374792
2073 5 14.764805 37.119855 10.049159
2074 2 30.005397 2.29369 3.718531
2075 2 29.695956 1.284796 2.49449
2076 5 29.662025 1.395019 3.500088
2077 2 1.221776 55.060312 13.979045
2078 2 1.001859 53.547916 13.453507
2079 5 1.561809 54.137472 14.05634
2080 2 21.638334 22.41288 1.820924
2081 2 20.788039 22.773704 3.147084
2082 5 20.72617 22.586123 2.154354
2083 2 20.51221 33.784844 10.902332
2084 2 20.083481 33.375721 9.398768
2085 5 20.719606 33.937813 9.950062
2086 2 21.088784 11.925481 2.949386
2087 2 20.162308 11.434875 4.179363
2088 5 20.954071 11.19343 3.596831
2089 2 12.614198 25.814579 1.140599
2090 2 11.006068 25.757664 1.290853
2091 5 11.784664 26.322387 0.975568
2092 2 28.970968 40.04516 10.18695
2093 2 28.821724 40.527197 8.651612
2094 5 29.465129 40.435585 9.427606
2095 2 1.425429 60.884793 2.498443
2096 2 1.894229 61.267952 1.000006
2097 5 2.215832 61.078949 1.940951
2098 2 10.521599 42.583746 7.893409
2099 2 11.902047 42.301386 8.684947
2100 5 11.183019 41.883867 8.107709
2101 2 11.018755 3.461914 5.358021
2102 2 10.578591 2.007169 4.808596
2103 5 11.317033 2.699433 4.807672
2104 2 28.654159 15.228262 10.197169
2105 2 28.338972 14.113912 9.069881
2106 5 27.923147 14.771152 9.717687
2107 2 3.102026 10.981565 12.789568
2108 2 4.259719 10.899655 11.664875
2109 5 3.368946 10.519922 11.959586
2110 2 3.483745 12.493905 16.259734
2111 2 4.932871 11.886948 16.638595
2112 5 4.357884 12.235895 15.882186
2113 2 23.141815 31.132814 11.739902
2114 2 22.908672 31.304311 13.329911
2115 5 22.446588 31.23899 12.431725
2116 2 30.077243 40.440757 5.932037
2117 2 30.617284 41.196224 4.609342
2118 5 30.228649 40.331264 4.963368
2119 2 7.126566 52.359335 13.559347
2120 2 6.021079 53.00941 14.542809
2121 5 6.882517 53.184887 14.041151
2122 2 7.515586 18.887708 6.619279
2123 2 8.206796 18.750694 8.073704
2124 5 8.379155 18.936396 7.093737
2125 2 10.605945 25.136027 4.024206
2126 2 11.654832 24.513988 5.084771
2127 5 11.538344 25.19134 4.341701
2128 2 34.60294 17.109728 11.299382
2129 2 33.510432 18.222817 10.875878
2130 5 34.491916 17.977525 10.843494
2131 2 29.693886 41.16616 2.599449
2132 2 29.162839 40.693594 1.148047
2133 5 28.975049 41.299212 1.937028
2134 2 22.298444 10.667098 5.376685
2135 2 21.025559 9.687437 5.198013
2136 5 21.784021 9.948617 5.815303
2137 2 15.68255 15.27302 7.815652
2138 2 16.687624 14.401505 8.733357
2139 5 16.583462 15.26617 8.217574
2140 2 31.616364 2.532673 5.278347
2141 2 31.106034 1.001713 5.365643
2142 5 31.89628 1.616535 5.514077
2143 2 5.154884 26.786768 2.109057
2144 2 4.496696 25.8114 1.001202
2145 5 4.913501 26.720912 1.154789
2146 2 5.322275 33.914999 8.045638
2147 2 6.305201 35.150131 8.392339
2148 5 6.246634 34.143538 8.303634
2149 2 10.945955 24.61337 12.971102
2150 2 10.605656 23.989081 11.519774
2151 5 10.241541 24.162129 12.448214
2152 2 29.304932 28.12513 15.986337
2153 2 29.569914 27.754348 14.435788
2154 5 29.29726 27.382578 15.336884
2155 2 15.487222 40.031598 9.766839
2156 2 16.638735 40.051448 8.633032
2157 5 15.992042 39.460729 9.140344
2158 2 19.326419 19.351163 13.445151
2159 2 20.348221 20.603105 13.423774
2160 5 19.616825 20.145465 13.953068
2161 2 18.434739 35.741338 10.541749
2162 2 19.208024 35.450474 9.152747
2163 5 19.329427 35.684462 10.130008
2164 2 13.827594 17.997093 15.00942
2165 2 14.574975 18.368244 16.393459
2166 5 14.226535 17.607873 15.823413
2167 2 9.422025 29.203302 5.303162
2168 2 10.067741 30.607053 4.829423
2169 5 9.88841 30.010085 5.626917
2170 2 10.920023 9.589017 8.763192
2171 2 10.263575 8.872302 7.471956
2172 5 10.795627 8.717023 8.318914
2173 2 9.222778 2.095246 16.17002
2174 2 9.920353 1.194468 17.316268
2175 5 9.162789 1.233286 16.646105
2176 2 19.919626 30.035884 14.072899
2177 2 19.978409 29.546808 12.533664
2178 5 19.638336 29.316817 13.458857
2179 2 21.315543 42.965293 6.840265
2180 2 21.8027 43.089097 8.376249
2181 5 21.415661 43.597309 7.591106
2182 2 9.794735 46.509411 2.727792
2183 2 8.439697 47.333241 3.03935
2184 5 9.116895 47.101406 2.323681
2185 2 16.795409 47.399427 8.470142
2186 2 17.196148 48.779442 9.209643
2187 5 17.441122 48.145201 8.459808
2188 2 20.809386 18.395385 14.756757
2189 2 22.316816 17.845804 14.950439
2190 5 21.705386 18.378049 14.344307
2191 2 15.458056 50.725401 12.637833
2192 2 16.668415 50.142891 11.739164
2193 5 15.668009 50.292235 11.776719
2194 2 29.835508 3.561776 0.973385
2195 2 30.478499 3.982987 2.395018
2196 5 29.669279 4.081794 1.795078
2197 2 6.722696 41.053716 10.4341
2198 2 6.8182 40.347165 11.884466
2199 5 6.193209 40.792412 11.224413
2200 2 2.709554 10.584329 17.479205
2201 2 2.512573 10.545257 15.875594
2202 5 2.103022 10.852372 16.748792
2203 2 13.86767 57.750731 9.470518
2204 2 14.097608 58.491471 10.888379
2205 5 13.577899 58.516983 10.020175
2206 2 31.195503 31.812937 5.572722
2207 2 31.849201 33.203371 6.073988
2208 5 31.005559 32.644113 6.069006
2209 2 19.525969 40.478085 6.972914
2210 2 19.051943 41.311749 8.27376
2211 5 19.842575 40.871359 7.820456
2212 2 35.410266 27.938328 13.592952
2213 2 33.921512 28.481601 13.276155
2214 5 34.732063 28.021517 12.881368
2215 2 35.375081 29.792636 8.470949
2216 2 35.3991 28.423056 9.328602
2217 5 35.416226 29.43331 9.388784
2218 2 20.912948 13.01786 1.052234
2219 2 19.897488 11.761919 1.110116
2220 5 19.960565 12.766055 0.999389
2221 2 27.461028 47.797597 10.376019
2222 2 26.591801 47.334492 11.657376
2223 5 27.197993 47.013089 10.913227
2224 2 22.989416 47.856879 7.060678
2225 2 23.602233 47.080335 8.338696
2226 5 22.748928 47.307243 7.84381
2227 2 12.964789 28.171018 2.624273
2228 2 13.427534 26.981856 3.616067
2229 5 13.321251 27.251407 2.646236
2230 2 12.826914 6.08169 7.31443
2231 2 13.668708 7.453651 7.169513
2232 5 13.104775 6.895466 7.797952
2233 2 24.159459 50.07497 12.76177
2234 2 24.820549 49.734033 14.196558
2235 5 24.855062 50.358969 13.401077
2236 2 15.217817 21.201614 1.004988
2237 2 16.425102 20.619659 1.908141
2238 5 15.975629 20.569992 1.002584
2239 2 22.755864 50.459838 14.412999
2240 2 23.326718 51.867607 13.861449
2241 5 23.259861 51.266939 14.673395
2242 2 14.428398 32.746686 3.22283
2243 2 12.88535 32.593408 3.678246
2244 5 13.517606 33.090863 3.063985
2245 2 23.403356 18.700326 6.34156
2246 2 23.939175 19.599594 7.572863
2247 5 24.196028 18.891321 6.896918
2248 2 12.664127 59.180232 7.332044
2249 2 11.829156 58.233263 6.323099
2250 5 12.561827 58.929013 6.383543
2251 2 28.936867 7.8771 4.81533
2252 2 29.430082 8.355173 3.352429
2253 5 29.720877 8.196599 4.308891
2254 2 31.51183 45.842064 16.419098
2255 2 32.51927 46.699246 17.347645
2256 5 32.464526 45.987888 16.629661
2257 2 18.312604 61.229078 7.682349
2258 2 19.587133 60.664658 6.864486
2259 5 18.758781 61.243044 6.802598
2260 2 1.702496 41.021193 11.740832
2261 2 1.397684 42.071086 12.931089
2262 5 0.978869 41.416835 12.282185
2263 2 2.054852 43.714665 2.456868
2264 2 2.630966 43.393795 0.981391
2265 5 2.221646 42.98638 1.812653
2266 2 19.407795 35.82451 2.979468
2267 2 19.488545 35.673425 4.586499
2268 5 20.03247 35.703788 3.733417
2269 2 25.151723 48.276362 5.076278
2270 2 25.314408 48.77212 3.546685
2271 5 25.573587 48.962342 4.506461
2272 2 33.338645 28.995235 8.825782
2273 2 31.983006 28.127181 8.682187
2274 5 32.963372 28.088973 8.931087
2275 2 25.92493 31.095028 8.861789
2276 2 25.06623 32.350144 8.314785
2277 5 25.79409 32.067984 8.959093
2278 2 18.146664 45.77998 7.861457
2279 2 17.800289 45.372779 6.336299
2280 5 17.404874 45.663067 7.221684
2281 2 22.755416 6.391981 5.888344
2282 2 23.153257 6.847203 7.38714
2283 5 22.997611 7.172256 6.441285
2284 2 3.20845 14.44665 17.382538
2285 2 4.752081 14.143202 17.7527
2286 5 3.792839 13.879516 17.939387
2287 2 25.881773 37.344677 17.802131
2288 2 24.759946 37.909843 16.785279
2289 5 25.446198 37.180487 16.932334
2290 2 2.316621 13.322842 8.852779
2291 2 3.138553 13.927035 10.106283
2292 5 3.22563 13.499525 9.192949
2293 2 15.294803 51.653948 6.778667
2294 2 14.006237 52.593546 7.040678
2295 5 14.94514 52.377433 7.350976
2296 2 6.50755 42.606356 6.87309
2297 2 6.955289 42.764379 8.417906
2298 5 6.399829 43.170196 7.675407
2299 2 2.588267 12.954639 13.613642
2300 2 1.72698 12.638383 14.944079
2301 5 1.745497 13.166362 14.0807
2302 2 8.526516 10.197124 6.934828
2303 2 8.967103 10.653664 8.421216
2304 5 8.87964 10.954739 7.458807
2305 2 7.153776 39.348777 2.669323
2306 2 5.600185 39.134678 2.278923
2307 5 6.262156 39.76924 2.70747
2308 2 10.718474 36.086258 13.898735
2309 2 10.199938 37.580514 13.566748
2310 5 11.012216 36.977173 13.59342
2311 2 20.353318 30.246304 3.00388
2312 2 20.568181 30.107893 4.599678
2313 5 20.453439 30.764098 3.837604
2314 2 22.633254 56.960488 7.445384
2315 2 22.8338 57.492798 8.958104
2316 5 22.163978 57.116783 8.298955
2317 2 26.634965 31.265968 1.00032
2318 2 28.155798 30.726866 1.0916
2319 5 27.271575 30.78528 1.580748
2320 2 15.360757 42.086944 6.253201
2321 2 15.188583 40.735581 7.122724
2322 5 14.948997 41.717596 7.070065
2323 2 28.633172 60.853927 15.727294
2324 2 28.770955 60.585432 17.315004
2325 5 29.169112 60.380887 16.407171
2326 2 16.201532 30.962341 2.998565
2327 2 17.812222 31.026584 2.882609
2328 5 17.01531 31.29556 3.445735
2329 2 35.130176 42.713001 5.391735
2330 2 33.740274 41.915124 5.183264
2331 5 34.283547 42.467473 5.834642
2332 2 16.843566 16.38136 3.694818
2333 2 15.381236 16.69277 4.308421
2334 5 16.099399 15.986563 4.208219
2335 2 30.70811 31.19252 8.615982
2336 2 31.387056 30.013575 7.743619
2337 5 30.798016 30.835595 7.700694
2338 2 31.171336 43.006642 5.948982
2339 2 32.093008 41.874417 6.64215
2340 5 32.070821 42.831852 6.314503
2341 2 7.600337 28.401416 13.41632
2342 2 8.939193 28.010307 14.23265
2343 5 8.369537 27.783805 13.427221
2344 2 16.514191 13.19424 14.21554
2345 2 17.525528 13.04761 15.467575
2346 5 17.335091 12.74095 14.521943
2347 2 28.967243 10.299015 4.250276
2348 2 30.030415 11.506304 4.405241
2349 5 29.471916 10.979874 3.745334
2350 2 14.669047 4.463396 15.439776
2351 2 13.342474 5.347804 15.175345
2352 5 13.684979 4.455646 15.508919
2353 2 32.144293 42.694966 3.884976
2354 2 31.965554 44.242958 4.31354
2355 5 32.640731 43.52111 4.095371
2356 2 15.602348 7.424248 3.147723
2357 2 15.810644 8.183287 1.736211
2358 5 16.287452 7.756405 2.5204
2359 2 31.813782 10.306229 8.27671
2360 2 31.11989 10.668913 9.690523
2361 5 31.990995 10.41692 9.240854
2362 2 32.561686 38.2046 13.767362
2363 2 33.128407 39.570151 14.420044
2364 5 33.173516 38.559573 14.455032
2365 2 20.420494 37.633852 13.794345
2366 2 19.486084 38.880745 13.365355
2367 5 20.315156 38.351741 13.125936
2368 2 21.005869 55.493941 9.227714
2369 2 19.991352 56.607976 8.643267
2370 5 20.078179 55.825518 9.279465
2371 2 21.765048 31.226072 16.685271
2372 2 21.69546 30.772011 15.135793
2373 5 21.146583 31.067755 15.933162
2374 2 34.02278 53.184807 5.679094
2375 2 32.560798 53.006075 5.013843
2376 5 33.077857 53.457061 5.758014
2377 2 7.398365 15.321831 9.111941
2378 2 7.579825 16.927642 9.130341
2379 5 7.38298 16.127384 8.542662
2380 2 31.758373 9.341111 12.371433
2381 2 30.488702 9.167801 11.386652
2382 5 31.194593 9.814728 11.714874
2383 2 6.37003 23.212549 18.00901
2384 2 5.676851 24.603434 17.565346
2385 5 5.531351 23.607393 17.671451
2386 2 25.521128 29.452354 1.554432
2387 2 23.987469 29.684272 2.008304
2388 5 24.918816 29.46082 2.335701
2389 2 12.456579 17.386657 2.329761
2390 2 12.138001 17.524338 3.908193
2391 5 11.883212 17.850976 2.984658
2392 2 21.283238 54.9588 11.525574
2393 2 20.552911 55.465746 12.875213
2394 5 21.272263 54.856429 12.506711
2395 2 11.541742 57.358909 1.043219
2396 2 11.514938 57.07772 2.634479
2397 5 10.948758 57.127578 1.796934
2398 2 28.703722 23.3074 14.868648
2399 2 29.448932 21.891682 14.639959
2400 5 29.459456 22.875921 14.403973
2401 2 25.15632 48.600415 8.004384
2402 2 25.076243 49.575614 9.290646
2403 5 25.037912 48.611846 8.98371
2404 2 9.40735 50.454277 10.205043
2405 2 8.350159 50.932902 11.329836
2406 5 8.623926 51.033321 10.360561
2407 2 13.053988 29.298742 10.803122
2408 2 12.73371 30.246927 12.072083
2409 5 12.941777 29.2994 11.783244
2410 2 12.741589 34.785944 5.294488
2411 2 14.064125 33.888629 5.054449
2412 5 13.449511 34.577678 4.639735
2413 2 29.69612 49.022768 12.540107
2414 2 29.881318 48.34066 11.086723
2415 5 30.37037 48.740712 11.87749
2416 2 16.813815 6.021915 9.462471
2417 2 17.185882 6.250531 7.906452
2418 5 17.567335 6.080128 8.828398
2419 2 25.611487 21.236975 15.142365
2420 2 25.918479 20.062318 14.075673
2421 5 25.618312 20.257801 15.022358
2422 2 13.373171 27.758765 14.380484
2423 2 13.859464 26.995687 15.719561
2424 5 13.072264 27.440247 15.264357
2425 2 13.756669 53.932632 5.311687
2426 2 13.68109 53.532532 3.747684
2427 5 13.174263 53.954174 4.515716
2428 2 3.640117 23.863172 1.538221
2429 2 3.068297 23.455641 2.993843
2430 5 2.810525 23.745771 2.059014
2431 2 19.487606 60.781632 10.048507
2432 2 17.953588 61.23828 9.824552
2433 5 18.686025 61.12045 10.513159
2434 2 1.148332 33.967185 2.559278
2435 2 1.388245 34.610545 4.022298
2436 5 1.001151 34.777682 3.102107
2437 2 18.777486 25.192749 17.14011
2438 2 20.109246 24.706692 17.916036
2439 5 19.418457 24.447432 17.223128
2440 2 3.532178 36.098105 18.245255
2441 2 4.376079 35.24447 17.163112
2442 5 4.225971 35.403061 18.151466
2443 2 21.434459 37.670775 10.335741
2444 2 22.271914 38.775708 11.166216
2445 5 22.066469 37.787995 11.084109
2446 2 7.346302 50.098517 14.862101
2447 2 8.387175 49.705957 16.034438
2448 5 8.156362 49.570726 15.058239
2449 2 25.290512 28.077244 8.738162
2450 2 25.389094 27.039428 9.973117
2451 5 25.786139 27.294771 9.07775
2452 2 3.47082 61.278362 13.931808
2453 2 3.369963 60.681708 15.430383
2454 5 3.699303 60.498399 14.49099
2455 2 32.865681 57.344088 3.537511
2456 2 32.251945 58.655044 2.818749
2457 5 33.028731 58.006123 2.824521
2458 2 27.671693 3.398973 5.49571
2459 2 26.282318 4.144275 5.850756
2460 5 27.040483 4.089366 5.182401
2461 2 11.86808 61.208915 15.69372
2462 2 13.407692 61.274157 15.206655
2463 5 12.595546 60.676295 15.293296
2464 2 12.711175 14.627616 1.659494
2465 2 14.296544 14.371082 1.478688
2466 5 13.395561 14.316583 1.020663
2467 2 11.239512 1.00095 15.567252
2468 2 10.810853 1.186965 14.020144
2469 5 10.963996 1.669805 14.896466
2470 2 27.000557 56.203804 16.475595
2471 2 25.945142 57.225488 17.149508
2472 5 26.081152 56.554272 16.404191
2473 2 33.515491 23.83347 9.933461
2474 2 32.232093 23.71451 8.958457
2475 5 33.181661 24.0571 9.032474
2476 2 11.281122 46.531069 6.589493
2477 2 11.686863 47.900161 7.346365
2478 5 11.075573 47.494089 6.649259
2479 2 11.424851 9.793142 5.853033
2480 2 11.021898 10.876412 6.982658
2481 5 11.498968 10.745477 6.099602
2482 2 11.417232 29.39559 3.591571
2483 2 10.465908 29.986376 2.426302
2484 5 11.425966 29.825678 2.703777
2485 2 4.178157 58.704038 15.951156
2486 2 3.035046 58.351181 17.03775
2487 5 4.017994 58.256421 16.815573
2488 2 25.977215 43.514851 17.508277
2489 2 25.453371 43.831875 19.00393
2490 5 25.178167 43.503892 18.086751
2491 2 31.82367 8.453288 7.086288
2492 2 31.063542 9.083793 5.807005
2493 5 31.868831 8.548052 6.105364
2494 2 27.819837 16.58233 15.678583
2495 2 27.079525 15.811749 14.466131
2496 5 27.402596 16.713129 14.794257
2497 2 2.808183 41.109127 15.022203
2498 2 4.357899 40.654758 14.96035
2499 5 3.453712 40.446443 15.3648
2500 2 7.533188 33.604492 4.565463
2501 2 8.664104 34.591517 3.966542
2502 5 8.502443 33.693503 4.404679
2503 2 20.80622 3.924785 1.001428
2504 2 21.312655 2.390048 0.999281
2505 5 21.612749 3.356702 1.00642
2506 2 28.892924 48.259812 8.771617
2507 2 29.006875 46.795918 8.096395
2508 5 28.997897 47.790775 7.910098
2509 2 35.409615 24.25905 15.528307
2510 2 35.276628 24.546951 17.113022
2511 5 34.903597 24.01261 16.338519
2512 2 18.784814 55.075745 7.632401
2513 2 19.045012 55.836442 6.230426
2514 5 19.477911 55.289046 6.963559
2515 2 10.372385 17.896317 9.691424
2516 2 10.22557 17.376358 8.168275
2517 5 9.74521 17.481182 9.053031
2518 2 21.740601 37.700468 7.183729
2519 2 21.157046 38.914307 8.077013
2520 5 21.590761 38.000399 8.111533
2521 2 8.893833 28.451111 2.329826
2522 2 8.313218 29.516325 3.397581
2523 5 8.759496 28.613809 3.293524
2524 2 16.212113 48.103558 11.054843
2525 2 15.784087 46.723283 10.33129
2526 5 16.241812 47.121304 11.141595
2527 2 24.310559 11.546468 5.260673
2528 2 24.190497 12.526583 3.981278
2529 5 24.826472 12.145055 4.670116
2530 2 5.283795 35.283494 4.412405
2531 2 5.765239 36.112659 3.111408
2532 5 5.956505 35.928089 4.088075
2533 2 16.520523 25.473282 14.207423
2534 2 16.881694 26.270103 15.566293
2535 5 16.278879 26.258708 14.753267
2536 2 8.666224 36.385533 1.203118
2537 2 9.483015 35.005897 0.999758
2538 5 9.092116 35.638423 1.686516
2539 2 5.527119 35.571768 0.99126
2540 2 5.86272 33.990885 0.99999
2541 5 6.262878 34.918491 1.062816
2542 2 1.000487 54.016213 16.179525
2543 2 1.526194 54.910853 17.418535
2544 5 1.009425 54.931119 16.548439
2545 2 20.977037 12.474824 12.398332
2546 2 22.536617 12.820467 12.643556
2547 5 21.661008 13.176003 12.281023
2548 2 31.117629 13.384491 6.269036
2549 2 30.399736 14.199196 5.072048
2550 5 31.066448 13.468699 5.287446
2551 2 27.968267 61.282549 11.702575
2552 2 28.768949 61.272087 10.298761
2553 5 28.869424 61.227355 11.304958
2554 2 19.714517 10.732366 10.753338
2555 2 18.982522 9.545563 11.570392
2556 5 19.052894 10.005206 10.671335
2557 2 13.132636 1.581086 4.305813
2558 2 14.072935 1.28347 5.586109
2559 5 13.86009 1.002935 4.63715
2560 2 11.217936 55.819884 4.409943
2561 2 9.989525 55.559199 3.392621
2562 5 10.658754 55.113718 4.007606
2563 2 8.067464 31.426177 5.22604
2564 2 8.770664 31.583294 6.672663
2565 5 8.225245 32.059782 5.965553
2566 2 23.484884 27.791432 5.658171
2567 2 22.9187 28.247536 4.214807
2568 5 22.929266 27.499801 4.896941
2569 2 2.297997 6.842491 9.67445
2570 2 1.870377 6.0243 8.34795
2571 5 2.376116 6.831153 8.691088
2572 2 26.625495 54.394124 15.240782
2573 2 26.922452 54.070799 13.685413
2574 5 26.54983 54.758992 14.327339
2575 2 17.514412 1.523161 6.909949
2576 2 17.018138 1.007219 5.461014
2577 5 16.713897 1.280779 6.386827
2578 2 18.760094 14.522095 13.549692
2579 2 18.841285 13.978917 12.029738
2580 5 18.358673 13.883071 12.914287
2581 2 21.49123 24.836448 2.863611
2582 2 22.43493 26.044988 2.352967
2583 5 21.50524 25.804225 2.67271
2584 2 27.023149 60.42969 1.780603
2585 2 27.075464 61.271403 3.159254
2586 5 26.654063 61.22066 2.240356
2587 2 23.604307 10.690758 16.036486
2588 2 22.627782 11.938783 16.353867
2589 5 22.742925 11.104817 15.791931
2590 2 29.209316 46.422407 10.25409
2591 2 29.066251 45.937996 11.789268
2592 5 29.714447 46.064601 11.022236
2593 2 32.298591 8.086126 14.091262
2594 2 33.512417 7.672824 15.074981
2595 5 33.281374 8.030661 14.156777
2596 2 25.334767 38.217827 2.713151
2597 2 25.76236 37.518233 1.320445
2598 5 25.876059 37.489671 2.325823
2599 2 13.591208 50.048544 5.463201
2600 2 13.235693 51.424469 4.693567
2601 5 13.571145 51.029784 5.563179
2602 2 15.685492 61.197571 11.828666
2603 2 15.420777 60.213108 10.574611
2604 5 16.107263 60.801528 11.029611
2605 2 25.597819 47.624576 13.598352
2606 2 25.537951 47.13849 15.138492
2607 5 25.898588 47.846413 14.511346
2608 2 23.10057 23.437681 8.987359
2609 2 24.067081 24.503633 9.723225
2610 5 23.181443 24.385842 9.247516
2611 2 28.526287 14.186492 12.212437
2612 2 26.998509 14.674327 12.411955
2613 5 27.76694 14.175326 12.842118
2614 2 3.365228 48.763284 7.527507
2615 2 1.951184 48.721063 8.308913
2616 5 2.690909 48.154971 7.91284
2617 2 8.873073 32.298881 8.750637
2618 2 8.734431 32.622915 10.327874
2619 5 8.294815 32.731616 9.42264
2620 2 8.452564 43.032484 3.430167
2621 2 8.182776 42.590895 1.899118
2622 5 7.742002 42.804547 2.784894
2623 2 21.693151 15.110702 14.951964
2624 2 22.075453 13.542527 14.87092
2625 5 22.079239 14.418772 14.364257
2626 2 19.161034 11.322358 12.854176
2627 2 18.681429 11.009043 14.36537
2628 5 19.036088 10.597336 13.511414
2629 2 26.521621 55.527066 10.632474
2630 2 25.75439 54.411596 11.515071
2631 5 25.974103 54.708602 10.572712
2632 2 28.662965 24.550964 2.501435
2633 2 28.693124 24.896994 4.079804
2634 5 28.881202 24.180979 3.389531
2635 2 11.620632 31.52179 1.327957
2636 2 11.796265 33.082932 1.707278
2637 5 11.89644 32.398173 0.968633
2638 2 18.327981 37.413461 12.206607
2639 2 17.595798 36.522892 13.339167
2640 5 18.283404 36.508361 12.596527
2641 2 1.158507 51.052746 11.748622
2642 2 2.197266 51.844121 12.700777
2643 5 2.030543 50.978217 12.203846
2644 2 32.033638 17.001103 15.606539
2645 2 32.711149 18.18981 14.746394
2646 5 32.897569 17.355491 15.288321
2647 2 28.775157 11.232172 8.854275
2648 2 29.171212 11.409414 10.411073
2649 5 29.05657 11.893818 9.529746
2650 2 23.613045 20.035107 18.213613
2651 2 24.232285 20.244973 16.735644
2652 5 24.377565 19.803404 17.634775
2653 2 2.106028 52.942093 3.567249
2654 2 1.006399 52.607588 4.70339
2655 5 1.588447 52.209216 3.97741
2656 2 29.317196 3.583816 14.415856
2657 2 28.318285 4.844577 14.259166
2658 5 29.090108 4.347006 13.833445
2659 2 26.377719 15.796817 1.181653
2660 2 25.239616 16.937145 1.054098
2661 5 26.234463 16.756923 1.005853
2662 2 9.584036 61.273533 11.116444
2663 2 9.249007 60.821699 9.601354
2664 5 8.84929 61.015258 10.510908
2665 2 16.867326 41.767471 11.856571
2666 2 17.298529 41.011025 10.495046
2667 5 16.989984 40.877157 11.449722
2668 2 19.801616 12.77362 8.863403
2669 2 20.197481 13.084951 10.399066
2670 5 20.558781 12.808622 9.494836
2671 2 10.970546 19.016313 15.283852
2672 2 11.071805 19.039649 16.896644
2673 5 10.63114 19.468177 16.092464
2674 2 7.422869 28.32477 10.391937
2675 2 8.796577 27.683791 10.952266
2676 5 7.786996 27.613516 10.970523
2677 2 23.969077 43.630229 11.991993
2678 2 23.427886 42.498447 13.010854
2679 5 23.567707 43.492697 12.882621
2680 2 30.985791 28.233864 11.942733
2681 2 30.686929 28.563063 10.388962
2682 5 30.288939 28.198664 11.245317
2683 2 15.093365 52.968899 11.386675
2684 2 14.373073 53.819508 10.216402
2685 5 14.603684 52.886591 10.534226
2686 2 19.98167 46.801696 8.513807
2687 2 19.733036 45.438469 9.345486
2688 5 20.233656 45.849417 8.56765
2689 2 13.557975 34.742876 7.336323
2690 2 14.836781 35.309434 6.526655
2691 5 14.524481 34.61081 7.189166
2692 2 16.580694 5.788937 13.571736
2693 2 15.404004 6.330092 14.538405
2694 5 16.112659 6.604601 13.869839
2695 2 20.533435 57.656019 10.494906
2696 2 20.915324 58.683014 11.682904
2697 5 20.389854 57.84941 11.451575
2698 2 23.447697 19.462962 13.308727
2699 2 23.471939 20.7413 12.320213
2700 5 24.043835 20.042893 12.778132
2701 2 9.652978 30.81206 13.176903
2702 2 8.770988 30.540374 14.503619
2703 5 8.969585 30.216119 13.565565
2704 2 2.049236 39.064434 12.725753
2705 2 1.50522 39.475279 14.191069
2706 5 1.229742 39.182344 13.262183
2707 2 14.742276 12.186878 1.229826
2708 2 15.927623 11.147555 1.585712
2709 5 15.643535 11.89036 0.959565
2710 2 30.24418 25.050897 15.411364
2711 2 29.795361 24.070292 16.615054
2712 5 30.484446 24.222014 15.889334
2713 2 6.714259 22.185345 8.438518
2714 2 6.269217 22.536294 9.952013
2715 5 5.971835 22.109496 9.083719
2716 2 15.058475 5.460911 3.972388
2717 2 14.958886 5.677425 5.570856
2718 5 15.584506 5.688821 4.775245
2719 2 3.133414 15.099807 15.229894
2720 2 3.298692 15.391479 13.648912
2721 5 3.781858 15.092166 14.486461
2722 2 7.297109 58.228696 13.21353
2723 2 7.564301 58.049317 14.7973
2724 5 7.321338 58.712957 14.072677
2725 2 15.27985 48.808887 6.576189
2726 2 15.520074 49.587895 7.971659
2727 5 14.92015 49.518644 7.159364
2728 2 1.924039 54.42136 1.000561
2729 2 2.424455 54.82653 2.482895
2730 5 2.609751 54.93144 1.493357
2731 2 12.019641 45.368703 18.030437
2732 2 11.163714 46.438271 18.887939
2733 5 11.585546 46.253502 17.986581
2734 2 25.69661 54.250412 7.658912
2735 2 24.613373 54.200877 8.85726
2736 5 24.819395 54.596496 7.948652
2737 2 13.045124 11.896284 13.32824
2738 2 14.054382 10.89313 14.094383
2739 5 13.911323 11.430851 13.248855
2740 2 16.780917 38.943514 14.858078
2741 2 17.286852 39.065974 13.328068
2742 5 17.472055 38.635333 14.225161
2743 2 29.438163 28.595141 6.83507
2744 2 29.726897 28.741904 8.418417
2745 5 29.334237 29.201292 7.606439
2746 2 22.205795 34.262773 1.747795
2747 2 23.034306 33.090217 1.005785
2748 5 23.116565 33.95001 1.533532
2749 2 11.830779 42.922729 17.769404
2750 2 12.789733 42.331265 16.610753
2751 5 11.968929 42.89482 16.792999
2752 2 13.36311 30.948775 8.917362
2753 2 13.684214 31.375077 10.442831
2754 5 13.462847 31.724272 9.518934
2755 2 30.375458 35.97106 11.311435
2756 2 30.766338 35.819265 12.872225
2757 5 30.461086 35.319119 12.046875
2758 2 10.114729 7.670717 10.856923
2759 2 9.345907 8.891658 10.128834
2760 5 9.65275 7.932645 10.025538
2761 2 28.118025 7.785296 6.850741
2762 2 27.65903 9.107722 7.658458
2763 5 28.155268 8.771087 6.843012
2764 2 34.378195 38.631668 2.08094
2765 2 33.833049 39.757574 3.104193
2766 5 34.06966 39.566923 2.138691
2767 2 19.879436 44.697838 5.95796
2768 2 19.222172 43.953943 7.233311
2769 5 19.40716 43.879249 6.240976
2770 2 21.587933 61.374741 9.96778
2771 2 20.961914 61.21572 8.486326
2772 5 21.823089 61.269739 9.015463
2773 2 20.95499 7.735302 11.988508
2774 2 20.583845 8.376528 10.552201
2775 5 21.134564 8.500537 11.392354
2776 2 20.509124 8.012434 6.758613
2777 2 20.598471 7.598725 8.318343
2778 5 21.070534 7.548935 7.42436
2779 2 19.171983 8.9615 16.925683
2780 2 17.621867 9.049584 17.374323
2781 5 18.452482 9.590711 17.169904
2782 2 22.705854 38.481891 13.841313
2783 2 23.89706 37.634703 14.530659
2784 5 23.659121 38.515835 14.093031
2785 2 12.594456 9.960187 1.356689
2786 2 12.657638 8.513764 2.074857
2787 5 12.457079 9.495772 2.216153
2788 2 34.986983 19.700175 14.207319
2789 2 34.765951 18.992232 12.771402
2790 5 35.412538 19.109888 13.541214
2791 2 2.141781 19.438644 7.694632
2792 2 2.627083 18.90553 6.248199
2793 5 2.092433 18.672258 7.0754
2794 2 27.98845 36.556803 13.980182
2795 2 28.52029 37.280407 12.636515
2796 5 27.876244 36.589633 13.000609
2797 2 26.732359 25.888766 5.586537
2798 2 27.470958 24.491322 5.923462
2799 5 26.915452 25.243859 6.31028
2800 2 5.966518 27.968357 18.757042
2801 2 6.799036 26.601082 18.534852
2802 5 6.873488 27.580804 18.778016
2803 2 25.01391 42.710309 15.702026
2804 2 23.685718 43.384252 15.074648
2805 5 24.554968 42.915342 14.853165
2806 2 9.85004 40.776323 15.100902
2807 2 11.387646 41.027876 15.530302
2808 5 10.422768 41.168849 15.801714
2809 2 31.645427 8.35825 16.173736
2810 2 31.568317 7.520718 17.553769
2811 5 31.950464 7.531146 16.616548
2812 2 20.299323 3.985334 5.442185
2813 2 19.735538 3.623934 3.971324
2814 5 19.70078 4.299957 4.723861
2815 2 14.847593 54.625319 7.1107
2816 2 14.60256 55.497281 8.449183
2817 5 14.532981 54.572251 8.044207
2818 2 22.546999 17.389319 2.384738
2819 2 22.255583 17.800902 3.920177
2820 5 21.826124 17.54669 3.03957
2821 2 16.871316 35.671495 1.157158
2822 2 17.236332 35.998326 2.697236
2823 5 16.953801 36.403246 1.813639
2824 2 27.379497 49.668406 11.690319
2825 2 27.875845 49.951729 10.178611
2826 5 28.180956 49.733986 11.118836
2827 2 25.625414 6.225452 9.051601
2828 2 26.492029 7.3712 8.311238
2829 5 26.518766 6.642174 9.012903
2830 2 13.70655 36.933897 7.488898
2831 2 14.812659 37.981187 8.0289
2832 5 14.306276 37.666253 7.211025
2833 2 1.417649 16.593914 6.826538
2834 2 0.996932 16.386565 8.373114
2835 5 1.117525 15.920957 7.4825
2836 2 32.179994 21.973967 10.355482
2837 2 31.266352 20.646564 10.232378
2838 5 32.172325 21.000125 10.512975
2839 2 20.137793 26.851898 13.799674
2840 2 19.750652 27.370109 12.318635
2841 5 20.242919 26.654805 12.838771
2842 2 35.404786 51.567783 16.593927
2843 2 35.363662 53.063451 15.983041
2844 5 35.033526 52.470933 16.734346
2845 2 33.48851 22.905523 12.239287
2846 2 33.992678 21.382174 12.431945
2847 5 33.859656 22.127278 11.759895
2848 2 16.171251 16.876969 10.166647
2849 2 15.675323 17.2934 8.685925
2850 5 15.504073 17.413304 9.676291
2851 2 32.59616 53.586642 18.045712
2852 2 33.320491 53.846513 16.624548
2853 5 33.354705 54.04822 17.615846
2854 2 11.293678 15.369656 14.168442
2855 2 9.761872 15.494126 14.668416
2856 5 10.604026 16.013862 14.455863
2857 2 7.481921 48.998909 7.643959
2858 2 8.206588 48.988879 9.088485
2859 5 8.293276 49.28752 8.125247
2860 2 29.852988 48.610454 1.002251
2861 2 30.3475 50.038797 1.574256
2862 5 30.639445 49.199625 1.0894
2863 2 19.386444 47.945461 10.294537
2864 2 20.224406 49.158009 9.631633
2865 5 19.358813 48.63503 9.589582
2866 2 16.781124 28.621263 16.207596
2867 2 15.611339 28.764955 15.101769
2868 5 16.569809 28.477778 15.254711
2869 2 35.409137 31.965887 13.005683
2870 2 34.047201 32.184214 12.163449
2871 5 34.626595 31.4975 12.629554
2872 2 19.419472 41.077369 13.444082
2873 2 19.019767 40.589951 14.93222
2874 5 18.658408 40.813093 14.013441
2875 2 25.48076 22.222324 7.3046
2876 2 25.435308 22.866632 8.786051
2877 5 25.036815 22.908965 7.856568
2878 2 10.276238 47.228111 9.093432
2879 2 10.076282 45.839496 8.291147
2880 5 10.758209 46.453025 8.719031
2881 2 25.958102 31.19597 16.863576
2882 2 26.197709 30.382066 15.488059
2883 5 25.502768 30.66637 16.16685
2884 2 33.548332 26.281223 13.520598
2885 2 32.464269 27.192291 14.299481
2886 5 33.316293 26.655809 14.40325
2887 2 26.737653 45.143897 11.981071
2888 2 27.251135 44.507221 10.5872
2889 5 26.735666 44.320299 11.438011
2890 2 4.66398 57.492956 12.546919
2891 2 4.98514 57.871051 14.085034
2892 5 4.555354 58.197589 13.228772
2893 2 29.730103 26.197576 6.103699
2894 2 31.178008 26.75488 5.651062
2895 5 30.688919 26.192348 6.335809
2896 2 5.251907 7.695401 9.034669
2897 2 6.128051 7.060688 7.834083
2898 5 5.200311 7.120922 8.23433
2899 2 19.791463 38.806212 15.96734
2900 2 18.732944 37.601548 16.167886
2901 5 18.830266 38.602901 16.056764
2902 2 23.075398 41.578801 6.393529
2903 2 21.981179 40.816945 7.306851
2904 5 22.807222 41.401586 7.326217
2905 2 28.045504 31.935992 15.999338
2906 2 27.973116 31.261834 14.532312
2907 5 27.622936 32.014561 15.111366
2908 2 31.277283 13.778844 10.799222
2909 2 30.634971 14.978923 11.670509
2910 5 30.672189 14.556537 10.751416
2911 2 28.825878 51.560627 1.135137
2912 2 28.209021 50.067645 1.086284
2913 5 27.99291 51.05194 0.991492
2914 2 31.57111 27.151422 1.006584
2915 2 30.974573 28.262381 2.017429
2916 5 30.732359 27.541668 1.349273
2917 2 20.334783 24.967043 9.948743
2918 2 19.296712 25.741553 10.915406
2919 5 19.815172 24.882363 10.783048
2920 2 12.04659 49.433323 14.625451
2921 2 12.748076 48.144048 13.949002
2922 5 12.406598 49.081264 13.777111
2923 2 33.428901 7.309611 5.002879
2924 2 34.831269 8.102177 5.133644
2925 5 33.824169 8.199166 5.163145
2926 2 29.581672 16.931942 5.949707
2927 2 30.158266 15.668903 6.776851
2928 5 30.411858 16.462584 6.202143
2929 2 20.568804 43.295324 16.411954
2930 2 21.381456 44.662826 16.126592
2931 5 20.751341 44.197272 16.767483
2932 2 29.616136 1.937268 9.323324
2933 2 29.597543 2.549666 10.818824
2934 5 29.085692 2.486636 9.947869
2935 2 11.782925 46.703577 1.297499
2936 2 10.827036 48.006686 1.306342
2937 5 10.940874 47.070832 0.937907
2938 2 14.727577 43.403399 17.858176
2939 2 14.898965 44.988371 18.123479
2940 5 14.33619 44.173837 18.334067
2941 2 11.816437 48.996974 11.239839
2942 2 11.429778 49.010681 9.670699
2943 5 11.37609 49.531267 10.537091
2944 2 14.807062 26.72757 9.069963
2945 2 15.154179 25.319472 9.78317
2946 5 15.063262 25.791578 8.892453
2947 2 29.553286 52.077993 6.765647
2948 2 29.099172 51.599581 5.29025
2949 5 29.64083 52.28267 5.804567
2950 2 14.701931 58.390548 7.06503
2951 2 13.636069 57.211995 7.359724
2952 5 14.525945 57.429403 6.929165
2953 2 8.54255 13.789237 5.048719
2954 2 8.187238 12.390062 5.775326
2955 5 8.246513 12.862994 4.882383
2956 2 13.994685 9.720768 9.668132
2957 2 13.012379 8.922638 8.663164
2958 5 13.107676 9.294422 9.599766
2959 2 25.10427 58.125035 7.316392
2960 2 24.695174 56.786922 8.125088
2961 5 24.870708 57.780096 8.210649
2962 2 4.6132 53.510272 7.865608
2963 2 5.63439 53.824702 6.65309
2964 5 5.205179 54.203223 7.487971
2965 2 34.709464 55.79819 2.667426
2966 2 33.197224 55.271818 2.88642
2967 5 33.878217 55.557053 2.194021
2968 2 25.473757 57.393995 12.782175
2969 2 26.973371 57.111056 12.250199
2970 5 26.420295 57.365744 13.058759
2971 2 16.948709 22.546774 0.990863
2972 2 15.5571 23.3685 1.000077
2973 5 16.31826 23.030602 1.575393
2974 2 7.814585 44.727772 7.02872
2975 2 9.346817 44.214535 7.001346
2976 5 8.449046 44.153531 6.537866
2977 2 13.730016 19.223284 11.264792
2978 2 13.13882 19.686593 12.695781
2979 5 13.37406 19.997611 11.761726
2980 2 7.863123 5.061833 12.589848
2981 2 7.882393 5.189452 14.200822
2982 5 8.031722 5.68844 13.332928
2983 2 35.076599 48.429178 5.278536
2984 2 34.972855 48.277665 3.672866
2985 5 34.443762 48.432575 4.521743
2986 2 25.306576 35.732955 4.952855
2987 2 24.725576 37.187387 4.554153
2988 5 25.560356 36.616392 4.594573
2989 2 16.08721 2.570253 9.730788
2990 2 14.695997 2.663568 10.547926
2991 5 15.110858 2.455433 9.648427
2992 2 14.92112 20.192978 15.216871
2993 2 13.312097 20.134399 15.077203
2994 5 14.182213 20.191474 14.563231
2995 2 22.218269 27.189458 7.472971
2996 2 22.437879 28.741427 7.866747
2997 5 21.862757 28.099456 7.336054
2998 2 1.000568 57.295478 10.434844
2999 2 2.22007 57.582458 9.413886
3000 5 1.287939 57.868851 9.685249
3001 2 4.832827 39.005314 6.745925
3002 2 3.262918 38.680582 6.950451
3003 5 4.199417 38.305402 7.032535
3004 2 23.998763 4.992278 16.787058
3005 2 24.612276 6.468018 17.027245
3006 5 24.344371 5.791605 16.323526
3007 2 34.886895 53.903955 3.788562
3008 2 34.54418 52.516477 3.034011
3009 5 34.147652 53.362803 3.422632
3010 2 21.844963 1.003793 15.447676
3011 2 22.051301 1.354494 17.011751
3012 5 21.665853 1.68667 16.136755
3013 2 29.610712 29.57502 3.129056
3014 2 29.607835 29.343998 4.728592
3015 5 30.19297 29.39176 3.904054
3016 2 27.730483 57.309608 8.062227
3017 2 26.783332 56.045302 8.403302
3018 5 26.858454 56.895438 7.859102
3019 2 25.334 51.148383 4.049243
3020 2 25.483806 52.239176 5.2323
3021 5 25.493848 51.250113 5.017401
3022 2 22.341666 11.673391 10.101171
3023 2 21.888005 10.55291 11.173836
3024 5 22.568571 10.783249 10.460884
3025 2 19.166864 27.484925 9.582181
3026 2 19.062683 29.077769 9.834942
3027 5 18.934387 28.166505 10.256446
3028 2 28.903157 57.76683 18.493601
3029 2 30.222978 58.35164 17.766988
3030 5 29.268031 58.558305 18.031361
3031 2 7.814269 30.537308 9.529965
3032 2 7.86031 30.06616 7.984716
3033 5 7.407006 29.919284 8.877728
3034 2 18.329659 4.908067 11.620829
3035 2 17.924218 4.147699 12.988073
3036 5 18.515818 4.108383 12.167713
3037 2 21.998811 38.597167 3.025054
3038 2 21.549485 39.033172 1.53512
3039 5 21.626762 39.342041 2.49593
3040 2 35.413113 9.296175 7.731551
3041 2 34.861671 7.781157 7.843473
3042 5 35.34268 8.440805 7.245124
3043 2 20.996219 60.581424 5.218317
3044 2 22.401384 61.277579 4.827454
3045 5 21.626865 61.293894 5.478899
3046 2 2.141896 45.999387 4.803672
3047 2 1.749878 47.114738 5.905583
3048 5 2.402013 46.878305 5.168463
3049 2 8.984292 7.173226 8.021484
3050 2 8.55933 7.79664 6.592268
3051 5 8.239067 7.594123 7.530855
3052 2 28.726013 50.387216 15.488399
3053 2 29.921725 49.760664 14.599802
3054 5 29.699227 50.4241 15.331154
3055 2 6.618172 52.707154 8.268188
3056 2 8.13727 52.283631 8.621552
3057 5 7.555706 53.011166 8.225316
3058 2 32.264537 15.516838 4.998216
3059 2 33.134815 15.632364 6.355112
3060 5 32.494216 15.046603 5.834491
3061 2 3.988257 42.107537 2.782745
3062 2 3.673568 42.345508 4.349983
3063 5 3.289798 42.01569 3.47336
3064 2 30.969653 20.313197 5.571345
3065 2 31.036861 19.546951 4.149991
3066 5 30.550536 19.598211 5.036212
3067 2 34.101288 60.675576 6.794211
3068 2 33.024529 60.824206 7.990202
3069 5 33.439146 61.289003 7.19234
3070 2 20.99171 22.060846 7.625915
3071 2 22.362673 22.700184 7.057055
3072 5 21.500878 22.236067 6.79931
3073 2 20.459952 59.178103 8.917493
3074 2 21.832721 59.25472 9.766923
3075 5 21.441409 59.109651 8.844775
3076 2 24.058922 9.04157 6.909109
3077 2 25.183964 9.129402 8.066027
3078 5 24.592095 8.500282 7.538366
3079 2 28.969117 59.664219 2.456001
3080 2 30.310813 59.195468 1.686572
3081 5 29.910617 59.905444 2.286825
3082 2 8.069255 47.411585 12.18643
3083 2 6.488972 47.358044 11.852166
3084 5 7.216342 47.891258 12.311668
3085 2 34.565308 56.536678 9.230622
3086 2 35.404576 56.495128 10.611128
3087 5 34.936105 55.929834 9.914347
3088 2 32.025036 39.31694 17.053258
3089 2 31.173601 37.98006 16.737494
3090 5 31.363098 38.927018 16.434363
3091 2 11.547586 40.844783 3.287412
3092 2 13.017757 41.458381 3.559428
3093 5 12.438365 40.975786 2.884198
3094 2 9.747591 35.96398 9.616785
3095 2 10.925647 36.400491 10.633415
3096 5 10.485444 36.606047 9.745442
3097 2 18.523169 15.877979 17.52471
3098 2 18.651276 14.607563 16.533989
3099 5 18.55663 15.614499 16.57461
3100 2 17.808404 9.103708 3.690184
3101 2 18.815031 9.291143 4.94057
3102 5 18.012217 8.778077 4.59884
3103 2 19.980147 36.403232 6.991698
3104 2 18.609673 36.94243 7.657253
3105 5 19.618818 37.019458 7.672093
3106 2 3.144765 5.926809 4.4809
3107 2 3.357314 7.206837 3.517445
3108 5 3.640436 6.774679 4.387852
3109 2 3.866874 21.477489 9.176912
3110 2 3.284036 21.964918 7.750515
3111 5 3.785321 21.225593 8.226581
3112 2 10.697206 4.061324 12.682217
3113 2 9.853504 3.173832 13.73693
3114 5 10.058838 4.116998 13.432296
3115 2 17.08881 36.271009 5.85911
3116 2 16.528941 37.505201 6.739572
3117 5 16.346939 36.916672 5.936431
3118 2 15.646122 15.932508 15.945633
3119 2 16.483812 17.277714 16.262798
3120 5 16.557148 16.309791 15.975963
3121 2 4.223432 43.027189 7.392078
3122 2 3.651763 43.732645 6.055133
3123 5 4.488744 43.403762 6.519706
3124 2 24.324691 16.851075 17.11284
3125 2 22.793572 16.472067 16.760815
3126 5 23.653365 16.856471 16.389983
3127 2 17.937495 12.66255 18.638697
3128 2 17.882548 11.049039 18.712581
3129 5 17.420988 11.903147 18.998918
3130 2 32.859075 52.345753 1.59533
3131 2 32.981351 53.877486 1.094591
3132 5 32.3548 53.186874 1.488313
3133 2 13.089196 14.667671 10.586626
3134 2 14.335547 15.66712 10.342482
3135 5 13.485142 15.524786 10.872652
3136 2 11.935384 54.922104 6.283811
3137 2 12.422068 55.1616 7.806203
3138 5 12.187236 55.619465 6.934571
3139 2 27.813892 26.821487 10.298093
3140 2 28.518804 26.991139 11.742466
3141 5 27.951447 27.453304 11.043154
3142 2 6.124779 55.97151 6.55553
3143 2 7.639518 55.441694 6.747249
3144 5 6.790561 55.703387 7.232343
3145 2 17.902932 17.726025 8.169043
3146 2 18.677356 18.103899 6.801793
3147 5 18.479397 18.406445 7.747205
3148 2 19.788978 39.024087 9.798706
3149 2 19.113051 39.872588 10.996649
3150 5 19.686481 39.067413 10.778935
3151 2 30.68864 19.272155 15.243225
3152 2 30.649217 18.257955 13.985553
3153 5 30.428341 18.361283 14.96793
3154 2 15.069303 47.093833 16.237152
3155 2 14.49738 48.454912 15.579686
3156 5 14.752391 48.003706 16.449116
3157 2 34.550459 5.349696 8.748547
3158 2 34.14291 4.800024 10.212671
3159 5 34.701791 4.615005 9.389295
3160 2 34.60645 60.466242 13.862437
3161 2 33.754144 60.259654 12.504943
3162 5 34.328922 60.909728 13.026058
3163 2 7.90927 36.147727 6.286005
3164 2 6.804249 34.971725 6.197459
3165 5 7.491691 35.497596 5.672664
3166 2 28.787022 34.552966 14.409256
3167 2 27.563685 34.39223 15.45305
3168 5 28.476318 34.040282 15.192742
3169 2 15.073752 55.671095 11.173394
3170 2 13.59596 55.852323 10.544759
3171 5 14.331774 56.312292 11.065847
3172 2 4.384848 32.046078 1.199819
3173 2 4.450795 33.09685 2.425961
3174 5 4.635474 32.140893 2.149254
3175 2 8.988719 14.485682 10.789192
3176 2 9.244185 14.131195 9.233244
3177 5 9.291419 13.77244 10.178544
3178 2 24.858085 27.114036 3.925383
3179 2 23.928045 25.792455 3.94395
3180 5 24.88278 26.128347 3.9576
3181 2 13.061995 25.377194 11.663301
3182 2 13.034647 25.808256 10.105953
3183 5 12.483562 25.742256 10.952403
3184 2 30.04964 36.552371 9.167457
3185 2 30.846769 36.41116 7.768693
3186 5 30.595919 35.93477 8.625813
3187 2 23.715741 36.083847 16.131721
3188 2 23.269617 35.822684 17.662951
3189 5 23.510716 35.375786 16.787348
3190 2 11.792761 58.341375 11.276591
3191 2 11.561398 58.201329 12.869937
3192 5 11.127535 58.465495 11.994434
3193 2 24.500484 24.68831 15.847307
3194 2 26.021214 24.908927 16.347911
3195 5 25.428957 24.802415 15.534022
3196 2 6.295551 32.24988 6.99232
3197 2 6.390767 31.90911 8.569249
3198 5 6.927694 32.130253 7.740194
3199 2 35.323267 7.157256 13.939497
3200 2 35.360255 8.688771 14.454267
3201 5 35.41856 8.091993 13.638802
3202 2 7.693812 8.685009 11.808137
3203 2 9.102945 9.327571 12.270039
3204 5 8.255912 8.878958 12.59532
3205 2 9.119901 34.411484 8.190837
3206 2 8.951949 34.021699 6.631428
3207 5 8.453417 34.209774 7.492021
3208 2 13.488183 3.936024 3.130601
3209 2 13.099852 4.280742 4.661047
3210 5 12.7303 4.013785 3.757337
3211 2 7.259374 7.625111 4.640354
3212 2 6.544885 6.604242 5.669541
3213 5 7.352197 6.744535 5.075325
3214 2 23.464895 48.020949 13.950212
3215 2 22.751921 48.466644 15.3304
3216 5 23.483864 47.894624 14.928431
3217 2 17.712267 23.2748 13.028902
3218 2 18.983513 22.327216 13.341815
3219 5 18.300381 22.58445 12.64061
3220 2 23.781284 10.150302 13.867998
3221 2 22.379853 10.727678 13.307176
3222 5 23.316574 10.444173 13.048904
3223 2 13.336881 59.2843 1.177895
3224 2 13.487348 57.949117 2.075972
3225 5 13.568515 58.958041 2.079633
3226 2 34.014856 39.513213 7.644692
3227 2 35.416275 38.750594 7.902248
3228 5 34.431564 38.766071 8.135982
3229 2 9.061532 1.000582 10.055976
3230 2 10.651754 1.002092 9.767725
3231 5 9.901433 1.480148 10.250434
3232 2 33.249683 35.356878 2.371536
3233 2 33.180884 35.401717 3.985584
3234 5 33.045784 34.816164 3.171088
3235 2 29.647399 51.391691 3.169388
3236 2 28.89024 52.80705 2.981331
3237 5 29.793566 52.35046 2.988755
3238 2 15.260294 45.697247 12.502496
3239 2 15.545477 44.613067 11.338401
3240 5 15.954426 45.110031 12.119627
3241 2 35.023355 57.672946 13.265814
3242 2 33.905112 57.208015 14.335985
3243 5 34.143256 57.907862 13.644588
3244 2 33.837296 48.845293 8.622109
3245 2 34.772331 48.243017 7.449562
3246 5 34.544228 48.183433 8.433912
3247 2 25.285744 43.131278 10.299925
3248 2 24.638273 43.89754 9.032834
3249 5 24.86767 43.978316 10.015371
3250 2 9.903822 31.837707 17.767913
3251 2 9.18409 30.941424 16.631886
3252 5 10.019577 31.043652 17.194059
3253 2 10.979053 28.030472 10.410811
3254 2 12.005013 28.058972 9.162415
3255 5 11.815024 27.638505 10.063325
3256 2 2.22565 26.978781 4.785409
3257 2 1.35841 27.745639 3.657703
3258 5 2.27744 27.659196 4.072959
3259 2 14.151692 36.755227 3.73997
3260 2 13.724833 36.749449 5.298704
3261 5 14.483421 36.575604 4.651519
3262 2 28.511043 1.000424 11.937531
3263 2 28.043006 1.349033 13.444618
3264 5 27.730548 1.017751 12.540654
3265 2 22.934 36.343493 5.687006
3266 2 22.528665 36.051191 4.150074
3267 5 23.107982 35.745646 4.9218
3268 2 1.001854 38.960697 9.040129
3269 2 1.230282 39.474146 7.524844
3270 5 1.693926 39.230988 8.391122
3271 2 1.827921 20.810863 11.480835
3272 2 1.826034 21.061916 9.884319
3273 5 2.402944 20.817405 10.679251
3274 2 6.633458 28.153487 2.994374
3275 2 6.945491 28.013882 1.414804
3276 5 6.708418 28.663967 2.153527
3277 2 24.939367 16.260942 10.630349
3278 2 24.780532 16.832165 12.133802
3279 5 24.60999 17.028338 11.155559
3280 2 4.39495 18.928221 7.553827
3281 2 5.410694 18.265687 6.485553
3282 5 5.177378 18.333497 7.468148
3283 2 30.150595 55.039048 9.638536
3284 2 29.486934 56.347333 8.960421
3285 5 30.268234 55.705077 8.920346
3286 2 12.350952 54.79418 16.366574
3287 2 11.750177 54.714303 14.86838
3288 5 12.382783 54.277467 15.526797
3289 2 4.230885 57.844511 6.686031
3290 2 3.32948 58.76162 5.707116
3291 5 4.030261 58.777846 6.4373
3292 2 3.245256 40.707544 7.8016
3293 2 3.047043 41.468077 6.38944
3294 5 3.649283 40.844659 6.91211
3295 2 24.057877 29.813697 14.492284
3296 2 23.746087 29.351088 16.009082
3297 5 24.096931 29.045601 15.11013
3298 2 28.681527 19.686109 8.737415
3299 2 29.365375 21.096717 9.130395
3300 5 29.323823 20.110486 9.354336
3301 2 8.730112 25.654145 13.013955
3302 2 7.307537 25.925488 12.296632
3303 5 7.760604 25.487803 13.0889
3304 2 22.340336 8.348315 17.052169
3305 2 22.553577 7.04993 16.113756
3306 5 22.271411 7.364377 17.033556
3307 2 25.760223 15.996078 8.238695
3308 2 25.498386 17.134534 7.12189
3309 5 25.683877 16.150165 7.267274
3310 2 21.935017 47.062219 1.729008
3311 2 20.56345 47.657839 2.342146
3312 5 21.382668 47.877363 1.78968
3313 2 27.476653 20.26324 6.741516
3314 2 26.097911 20.141366 7.575851
3315 5 26.830574 19.617462 7.114054
3316 2 26.788465 40.744327 2.473368
3317 2 26.323934 40.267304 1.000767
3318 5 26.404724 39.987522 1.97016
3319 2 7.680865 30.452529 1.325822
3320 2 6.599698 31.614485 1.021136
3321 5 6.813932 30.823679 1.61549
3322 2 5.882975 36.960709 6.028442
3323 2 6.444912 37.225356 7.520449
3324 5 5.741842 36.738306 6.979152
3325 2 5.610184 20.855413 6.825223
3326 2 5.6233 20.149698 5.371369
3327 5 5.029841 20.474611 6.124208
3328 2 16.845941 46.433791 4.516215
3329 2 16.03234 46.741398 5.878319
3330 5 16.058996 46.16478 5.046857
3331 2 19.729942 33.649221 3.010127
3332 2 20.249918 32.891026 4.339285
3333 5 20.529419 33.475017 3.561235
3334 2 14.115326 47.180115 4.891181
3335 2 12.808474 47.98849 5.391744
3336 5 13.691046 47.58762 5.683114
3337 2 19.138505 59.692442 2.55967
3338 2 18.44652 60.836578 1.651924
3339 5 18.600255 60.518191 2.600355
3340 2 7.68799 10.876364 11.610711
3341 2 7.459603 10.854846 10.010939
3342 5 8.083757 10.577425 10.757931
3343 2 15.062064 4.889345 11.139991
3344 2 16.342657 3.960778 11.471261
3345 5 15.882425 4.503223 10.751214
3346 2 20.804084 15.096322 2.605798
3347 2 20.643026 15.219235 1.002412
3348 5 20.184825 14.927733 1.856581
3349 2 15.781436 10.554993 4.281091
3350 2 15.305365 11.258581 5.655942
3351 5 15.854718 11.381484 4.814732
3352 2 26.473851 57.619151 9.955234
3353 2 24.989724 57.065509 10.275771
3354 5 25.704609 57.72139 10.564368
3355 2 29.885883 4.113518 8.604731
3356 2 30.222612 4.932664 9.956585
3357 5 30.446974 4.835877 8.974332
3358 2 3.655167 51.012868 15.28253
3359 2 3.763003 49.907699 14.108278
3360 5 3.216002 50.215466 14.902379
3361 2 19.217724 1.003086 5.472108
3362 2 19.595958 2.141722 6.554855
3363 5 19.605269 1.904917 5.5708
3364 2 33.84519 19.219334 7.706904
3365 2 34.173004 17.962356 8.668382
3366 5 33.688843 18.849179 8.607888
3367 2 9.841182 17.069014 2.762568
3368 2 10.403408 17.667119 1.370423
3369 5 9.566431 17.472912 1.905475
3370 2 6.356077 59.485391 10.851681
3371 2 6.333111 57.874132 10.975025
3372 5 6.09724 58.739793 11.443558
3373 2 8.723716 42.253133 5.468179
3374 2 8.578571 41.885986 7.035352
3375 5 8.348912 41.589973 6.095054
3376 2 30.304658 43.633384 11.266605
3377 2 28.89373 43.051762 10.734729
3378 5 29.366383 43.8764 11.082721
3379 2 26.032276 60.440711 14.907134
3380 2 26.232689 58.966029 15.537247
3381 5 26.355449 59.956846 15.703793
3382 2 16.544744 26.463441 3.876614
3383 2 15.445865 26.547774 5.058667
3384 5 15.580024 26.566009 4.055574
3385 2 17.312925 2.547391 16.539371
3386 2 17.596187 1.215447 15.668979
3387 5 17.48309 1.578024 16.607208
3388 2 15.079981 61.279617 5.307726
3389 2 14.192037 60.403127 6.334964
3390 5 14.267644 61.297562 5.867206
3391 2 32.638069 34.636782 12.762351
3392 2 33.562638 35.873964 13.238217
3393 5 32.798168 35.266441 13.504731
3394 2 34.745097 47.298152 11.977296
3395 2 34.040502 46.514618 13.20266
3396 5 34.825026 46.508435 12.56312
3397 2 4.721544 13.487559 13.318636
3398 2 4.188427 13.089857 11.845709
3399 5 4.354331 13.859429 12.481918
3400 2 15.526693 46.565805 1.044784
3401 2 14.164026 47.434469 1.023421
3402 5 14.956364 47.158403 1.589562
3403 2 35.194216 33.45889 6.651413
3404 2 35.408144 31.902667 7.031281
3405 5 34.72845 32.650315 6.971569
3406 2 14.986404 10.168668 11.578205
3407 2 14.686801 8.735929 12.263327
3408 5 15.356264 9.49187 12.193329
3409 2 21.946851 5.0311 7.725942
3410 2 22.267599 5.576692 9.213001
3411 5 21.632961 5.649214 8.427825
3412 2 33.779254 12.937603 14.003013
3413 2 33.657349 11.412682 14.524216
3414 5 34.150856 12.030472 13.892303
3415 2 19.651826 5.647864 9.379343
3416 2 19.035371 6.841288 10.278019
3417 5 19.656678 6.042242 10.283596
3418 2 25.035155 40.320997 7.368485
3419 2 25.127356 40.960386 5.887075
3420 5 25.180877 41.163952 6.877137
3421 2 13.35012 46.056792 9.376562
3422 2 13.687515 45.740789 10.925174
3423 5 13.60122 46.475167 10.233966
3424 2 28.839834 30.537709 12.644812
3425 2 28.372618 28.991266 12.690826
3426 5 29.142687 29.613406 12.479966
3427 2 23.644649 60.806379 12.370131
3428 2 23.185874 61.268102 13.849399
3429 5 23.816971 60.669494 13.331796
3430 2 19.993534 20.83273 11.139639
3431 2 20.603102 19.920525 9.952961
3432 5 20.772519 20.724527 10.544067
3433 2 34.745998 32.074538 9.6044
3434 2 35.411788 33.546385 9.652213
3435 5 35.062371 32.781435 10.215494
3436 2 3.859958 25.588521 4.080829
3437 2 5.386949 25.258444 3.667015
3438 5 4.418569 25.161446 3.388882
3439 2 5.003093 46.869033 15.975327
3440 2 4.980332 47.365249 17.513231
3441 5 4.763402 47.626788 16.559781
3442 2 6.248594 52.034608 10.536881
3443 2 4.985028 51.78402 9.560918
3444 5 5.292072 51.793434 10.525367
3445 2 12.933945 43.274501 10.572843
3446 2 13.037926 43.956685 12.03425
3447 5 13.562352 43.498836 11.299486
3448 2 28.176472 9.663709 16.425643
3449 2 27.834177 8.687267 15.184156
3450 5 27.587568 8.927105 16.136095
3451 2 21.359922 52.294391 2.726312
3452 2 21.506099 52.2525 4.335278
3453 5 21.021123 52.692021 3.563173
3454 2 9.195385 49.920566 2.444858
3455 2 9.076385 50.718649 3.845143
3456 5 8.571292 50.156992 3.171385
3457 2 19.457116 35.746499 15.235737
3458 2 19.792885 34.213388 14.850087
3459 5 19.055067 34.902791 14.919913
3460 2 34.778993 20.648635 16.685501
3461 2 34.914605 21.340821 18.139593
3462 5 35.413443 21.097498 17.293141
3463 2 32.46955 57.408682 12.238023
3464 2 32.564823 58.760701 11.35776
3465 5 31.989202 58.238626 12.006316
3466 2 21.368377 35.859427 9.090263
3467 2 22.305786 35.659522 7.789034
3468 5 21.881245 35.189722 8.578705
3469 2 7.650279 28.528613 6.425412
3470 2 7.435681 27.785589 5.006342
3471 5 7.001457 28.010637 5.892531
3472 2 17.960066 33.127049 4.213454
3473 2 17.533822 34.672568 4.417372
3474 5 17.209264 33.760434 4.122076
3475 2 11.399316 6.246517 9.053187
3476 2 11.834228 5.554627 10.447474
3477 5 12.166138 6.086604 9.65289
3478 2 18.469496 58.364397 8.639666
3479 2 18.327705 58.954364 10.137575
3480 5 18.284199 59.186074 9.153225
3481 2 28.264248 13.759931 17.008267
3482 2 28.525198 12.177287 17.205847
3483 5 28.930165 13.098766 17.312645
3484 2 35.420496 22.188989 9.720862
3485 2 34.775356 21.62961 8.348716
3486 5 34.89447 22.450771 8.9284
3487 2 19.965591 31.998661 13.08297
3488 2 21.310811 32.803183 13.476698
3489 5 20.466647 32.832495 12.918975
3490 2 26.263858 13.828117 8.042013
3491 2 25.247812 13.379244 6.868106
3492 5 25.961632 13.055319 7.508466
3493 2 23.535526 58.543841 10.961277
3494 2 23.663834 58.616735 12.570662
3495 5 24.148982 58.778908 11.697244
3496 2 19.371214 25.302911 6.709022
3497 2 19.189304 25.73706 8.255088
3498 5 18.714215 25.631336 7.367596
3499 2 14.933167 35.029282 10.805037
3500 2 15.111552 34.466915 9.300439
3501 5 14.436851 34.755325 9.997666
3502 2 15.127872 29.31917 11.529066
3503 2 16.230986 29.791949 12.611431
3504 5 15.80818 30.00828 11.717584
3505 2 35.413628 59.475019 8.086233
3506 2 35.424485 58.934872 6.563073
3507 5 35.021052 58.801438 7.481748
3508 2 23.278315 32.552305 9.974219
3509 2 22.878265 32.550453 8.408379
3510 5 22.680713 32.96856 9.308761
3511 2 26.608761 60.983217 10.014151
3512 2 25.24585 60.827687 10.868656
3513 5 25.679076 61.304835 10.088162
3514 2 30.060845 41.955433 7.528942
3515 2 30.14723 42.696062 8.962783
3516 5 30.024538 42.838052 7.968141
3517 2 33.109502 10.035476 16.15288
3518 2 34.284961 9.057075 16.675301
3519 5 33.497663 9.625117 16.961686
3520 2 22.441773 20.783694 8.640769
3521 2 22.931266 20.803698 10.180864
3522 5 23.046932 21.237821 9.273843
3523 2 28.005247 39.00719 3.11636
3524 2 28.721426 38.78067 4.547329
3525 5 28.739413 39.324549 3.693866
3526 2 29.441516 51.793846 8.942075
3527 2 28.08062 51.31482 8.213795
3528 5 28.460243 51.762081 9.038641
3529 2 31.693321 13.220733 12.882783
3530 2 32.997769 13.849339 12.165033
3531 5 32.266047 14.022975 12.842499
3532 2 30.197666 59.656878 5.433816
3533 2 30.924779 60.614594 4.354009
3534 5 30.977081 60.245511 5.295056
3535 2 14.79312 29.320871 2.650884
3536 2 16.027018 28.293015 2.832275
3537 5 15.072506 28.490782 3.104895
3538 2 2.073417 24.276586 10.829647
3539 2 2.750218 24.485542 9.377004
3540 5 2.487358 24.948612 10.237816
3541 2 14.590826 0.998771 2.545372
3542 2 14.345115 1.398759 0.998914
3543 5 14.212814 1.695138 1.957655
3544 2 14.911807 22.099971 9.615756
3545 2 15.073493 21.038879 10.823993
3546 5 14.442193 21.696218 10.383661
3547 2 10.972996 26.939604 7.575637
3548 2 10.892562 26.42031 6.047318
3549 5 10.347314 26.725939 6.843449
3550 2 19.014532 20.65599 2.502666
3551 2 18.426243 20.458323 1.010439
3552 5 18.698549 19.978425 1.859011
3553 2 24.688578 5.373056 6.84579
3554 2 26.019219 6.223964 6.503378
3555 5 25.01214 6.194758 6.40608
3556 2 7.360668 13.789482 0.999384
3557 2 5.904422 13.943152 1.683218
3558 5 6.901561 14.006452 1.845183
3559 2 26.749874 55.742993 4.49873
3560 2 27.345431 55.842866 5.997808
3561 5 27.222285 56.340909 5.125273
3562 2 3.819511 59.927341 8.299112
3563 2 2.493595 59.756794 9.207274
3564 5 2.991462 59.40087 8.401063
3565 2 24.756548 1.002367 9.178646
3566 2 24.890926 2.442588 9.899481
3567 5 25.047157 1.448557 10.009123
3568 2 20.476209 53.508031 5.819595
3569 2 20.029586 53.133206 7.326887
3570 5 20.816336 53.202757 6.693867
3571 2 16.894668 24.468762 18.01639
3572 2 15.963307 24.631165 16.705631
3573 5 16.347095 25.113367 17.508573
3574 2 11.420426 14.449828 9.170106
3575 2 10.661381 15.672391 9.905692
3576 5 11.388643 15.433097 9.243608
3577 2 13.264899 35.61201 18.999738
3578 2 14.125037 36.006084 17.689484
3579 5 14.058204 35.363413 18.468608
3580 2 13.517909 15.188463 8.319711
3581 2 12.96226 15.134478 6.803059
3582 5 12.915465 15.637275 7.680289
3583 2 1.744824 49.253372 13.538736
3584 2 1.001447 49.798832 14.866049
3585 5 1.320441 48.96874 14.382605
3586 2 32.634498 4.739627 2.48682
3587 2 31.879115 5.773365 3.473064
3588 5 32.244905 4.833397 3.388294
3589 2 12.108145 5.183608 17.095261
3590 2 12.856794 4.656719 18.427105
3591 5 12.995274 5.057148 17.507862
3592 2 31.808649 7.963908 3.618531
3593 2 33.009688 7.682923 2.574286
3594 5 32.58994 8.376807 3.179979
3595 2 13.340152 59.467825 12.70039
3596 2 13.564687 60.676002 11.650731
3597 5 13.819475 60.319058 12.562981
3598 2 5.43811 47.965309 10.024579
3599 2 5.264966 48.118668 8.42508
3600 5 5.555158 47.493346 9.16622
3601 2 10.919053 28.774481 13.657995
3602 2 10.11231 28.866699 12.260656
3603 5 10.9732 29.112602 12.732807
3604 2 21.07057 49.071628 13.270846
3605 2 21.978608 48.908076 11.943965
3606 5 21.285419 48.458356 12.528573
3607 2 29.726773 32.28066 3.861189
3608 2 28.459286 31.441204 3.312839
3609 5 29.077295 31.578435 4.102623
3610 2 31.671751 26.003312 8.343532
3611 2 32.996987 26.41044 7.512935
3612 5 32.376646 25.647273 7.752271
3613 2 14.332618 7.681377 4.920326
3614 2 12.934886 8.491688 4.879899
3615 5 13.360936 7.578517 4.784369
3616 2 14.213554 11.056752 17.389189
3617 2 13.186812 11.386181 16.185374
3618 5 13.854833 11.787182 16.831496
3619 2 24.436376 29.221803 7.028031
3620 2 23.659119 30.536242 7.5572
3621 5 24.455288 29.931075 7.713455
3622 2 23.346175 18.827504 11.093737
3623 2 23.011622 18.714036 9.516684
3624 5 22.75953 18.380557 10.438513
3625 2 4.240891 9.466362 8.114432
3626 2 3.823925 9.152423 6.584897
3627 5 3.510533 9.558176 7.457638
3628 2 17.946067 45.290704 11.123412
3629 2 17.252976 44.977654 9.697396
3630 5 17.719551 45.686776 10.248741
3631 2 23.906802 59.496874 15.178586
3632 2 23.537513 57.962713 14.829486
3633 5 24.220622 58.697167 14.693594
3634 2 6.904377 57.445285 8.609201
3635 2 6.608035 58.035622 7.134217
3636 5 7.214395 58.102445 7.941922
3637 2 19.149431 45.991695 2.121962
3638 2 17.562621 45.738969 2.295339
3639 5 18.480579 45.472887 2.628625
3640 2 27.400437 53.230123 1.029707
3641 2 28.144811 54.47009 1.751015
3642 5 28.210285 53.792788 1.00168
3643 2 32.40706 44.507758 11.393321
3644 2 32.377561 42.904132 11.194808
3645 5 32.450464 43.792521 10.715248
3646 2 7.763354 9.016129 15.027796
3647 2 6.213931 8.778869 14.634232
3648 5 6.984048 8.434352 15.193476
3649 2 28.650311 13.089909 6.991215
3650 2 27.491894 13.798295 6.11477
3651 5 28.131335 13.922701 6.889474
3652 2 32.021924 41.547585 8.959114
3653 2 31.308623 40.289253 8.238212
3654 5 31.824344 40.586022 9.057045
3655 2 21.536535 40.134022 12.732691
3656 2 21.931961 40.834338 14.134508
3657 5 21.84046 40.980929 13.137179
3658 2 28.420123 49.226998 4.441862
3659 2 29.007547 49.146158 5.945289
3660 5 29.21183 49.42834 4.994937
3661 2 27.784878 52.074565 13.366553
3662 2 28.304875 51.919186 11.844267
3663 5 28.177223 51.436371 12.724677
3664 2 23.654927 33.044337 6.412545
3665 2 23.274116 33.552621 4.926434
3666 5 23.726782 33.809859 5.794449
3667 2 29.283517 8.638435 1.181464
3668 2 29.987943 9.903571 1.899176
3669 5 29.77265 9.477166 1.006789
3670 2 33.452836 42.93203 8.023254
3671 2 34.27759 44.170827 8.653379
3672 5 33.560243 43.48052 8.836182
3673 2 30.372013 13.259736 3.060416
3674 2 31.969097 13.359796 3.286705
3675 5 31.190331 13.710437 2.743472
3676 2 9.090572 26.574822 9.068605
3677 2 8.794628 25.571044 10.300166
3678 5 8.37733 26.066065 9.522128
3679 2 9.112715 24.64415 8.018422
3680 2 9.579324 24.708475 6.472449
3681 5 8.927714 25.079171 7.152534
3682 2 18.79165 40.518102 1.168298
3683 2 17.884362 40.496087 2.505549
3684 5 18.50165 39.948261 1.919572
3685 2 22.288119 54.818049 7.014003
3686 2 22.047982 55.487067 5.562574
3687 5 21.620544 55.284851 6.457523
3688 2 25.129552 21.964999 13.084462
3689 2 24.912105 23.533023 12.75902
3690 5 24.442707 22.645816 12.889621
3691 2 23.477578 11.650379 7.290231
3692 2 23.097959 13.005863 6.496223
3693 5 22.828679 12.392626 7.25514
3694 2 6.459094 50.206036 16.988069
3695 2 6.698282 48.609117 16.92073
3696 5 6.107077 49.367722 16.605258
3697 2 24.263471 22.49809 10.60045
3698 2 25.097837 21.152793 10.275017
3699 5 25.02825 21.949302 10.895708
3700 2 16.602346 32.368591 13.673264
3701 2 16.154029 32.06597 15.196198
3702 5 16.420533 31.642771 14.316195
3703 2 12.993945 2.807621 9.169067
3704 2 12.674526 4.26114 8.53887
3705 5 13.213532 3.766876 9.238657
3706 2 3.62636 41.493747 12.689866
3707 2 3.74008 40.193607 11.736662
3708 5 4.267022 40.864486 12.281438
3709 2 30.634146 59.087796 15.081747
3710 2 32.006863 58.502298 14.461476
3711 5 31.514073 58.711087 15.320599
3712 2 5.908855 16.80026 12.308153
3713 2 6.86489 16.189525 11.157112
3714 5 6.361228 17.014339 11.458001
3715 2 1.439368 44.680739 10.879162
3716 2 2.03947 44.242507 9.443988
3717 5 1.601633 43.904888 10.291832
3718 2 1.276044 47.741796 10.79125
3719 2 2.381891 47.855742 11.964286
3720 5 1.478254 47.471742 11.718295
3721 2 25.305609 29.120848 12.818439
3722 2 26.039618 28.39561 11.574592
3723 5 26.1891 28.909405 12.433776
3724 2 5.271347 50.485677 3.864695
3725 2 6.443626 51.366552 3.185198
3726 5 6.100239 50.425946 3.333093
3727 2 31.306771 45.402845 9.273013
3728 2 32.42278 45.225762 8.117565
3729 5 31.759875 44.735676 8.704846
3730 2 13.218094 50.948341 12.684226
3731 2 12.832278 51.074411 11.119889
3732 5 13.509427 51.336197 11.8252
3733 2 34.593678 45.792665 7.201492
3734 2 35.412555 44.627668 6.437216
3735 5 34.503333 45.058149 6.549147
3736 2 19.088464 42.252053 10.804353
3737 2 18.80596 43.423027 9.7269
3738 5 18.982941 43.227789 10.704186
3739 2 32.360626 53.122439 10.098399
3740 2 31.231613 51.971285 10.208257
3741 5 32.138009 52.271158 10.544486
3742 2 3.954576 43.946293 10.478117
3743 2 5.079794 43.52628 9.396744
3744 5 4.927076 43.849123 10.343832
3745 2 25.609132 43.056563 5.45785
3746 2 26.303628 43.847878 4.231721
3747 5 26.411672 43.082055 4.884691
3748 2 19.547617 23.476866 8.489565
3749 2 19.184772 23.118344 6.956039
3750 5 18.819474 23.489301 7.824069
3751 2 9.169644 57.633427 18.196091
3752 2 10.255992 58.520335 18.999296
3753 5 9.741823 57.648465 18.999594
3754 2 9.011246 45.178962 17.59687
3755 2 8.671211 46.740807 17.835429
3756 5 8.354296 45.793911 18.001202
3757 2 5.311651 4.911004 16.301168
3758 2 6.47441 5.922992 16.786726
3759 5 5.994596 5.057139 16.997919
3760 2 30.955909 56.590646 15.399848
3761 2 31.228867 56.475772 13.811077
3762 5 30.533853 56.361747 14.538045
3763 2 22.651996 8.641131 8.556666
3764 2 23.670861 7.672098 9.3534
3765 5 22.994572 8.418371 9.454581
3766 2 21.436013 40.628256 9.426565
3767 2 21.062068 41.251349 10.870108
3768 5 20.699853 41.019936 9.953715
3769 2 34.323546 6.223931 12.053393
3770 2 35.412237 6.464029 10.883351
3771 5 35.086448 6.788862 11.784945
3772 2 33.860026 35.821582 15.619132
3773 2 32.321403 36.315408 15.644982
3774 5 33.251887 36.535434 15.312844
3775 2 33.312132 59.264634 0.99926
3776 2 32.33178 60.526244 1.242457
3777 5 33.280643 60.188628 1.343461
3778 2 2.59828 19.344541 13.516574
3779 2 2.668318 18.438512 12.180123
3780 5 2.395349 18.449481 13.154748
3781 2 26.154395 39.907543 16.096762
3782 2 25.229983 40.299208 14.830287
3783 5 25.814708 40.668817 15.569215
3784 2 13.793643 26.311313 7.171804
3785 2 13.373749 26.085994 5.627519
3786 5 13.130292 26.563085 6.486379
3787 2 25.764354 4.500941 1.009
3788 2 25.255917 6.034651 0.975468
3789 5 25.237234 5.1718 1.504302
3790 2 17.501978 18.39065 14.60185
3791 2 17.638846 19.671246 15.578189
3792 5 16.98366 19.07116 15.09326
3793 2 27.041847 28.643043 14.442493
3794 2 26.825487 27.115195 14.922872
3795 5 27.37376 27.721385 14.325831
3796 2 12.040189 59.985077 9.489737
3797 2 13.511236 60.653313 9.452643
3798 5 12.520119 60.84635 9.522999
3799 2 16.900308 47.362162 15.001232
3800 2 16.445231 47.862908 13.533562
3801 5 16.553682 48.138828 14.501361
3802 2 32.988066 23.538696 6.907171
3803 2 33.806038 23.384133 5.521917
3804 5 33.573125 22.93049 6.396266
3805 2 26.352471 38.671441 6.61011
3806 2 26.448571 38.585283 4.999136
3807 5 26.872521 38.283094 5.867165
3808 2 22.577265 1.047427 2.560186
3809 2 23.055179 1.0625 1.016403
3810 5 23.365067 0.953713 1.973827
3811 2 25.126324 46.234264 2.475885
3812 2 25.610882 46.107165 4.012422
3813 5 25.461654 45.597553 3.150706
3814 2 18.060784 11.396907 5.730815
3815 2 17.754088 11.732467 7.281696
3816 5 17.384272 11.776181 6.340498
3817 2 12.590401 1.928292 7.073546
3818 2 13.466115 3.167975 6.518382
3819 5 12.546151 2.88327 6.830049
3820 2 2.970859 16.720063 10.830723
3821 2 2.897447 15.990426 9.390537
3822 5 2.375837 16.534678 10.065993
3823 2 25.105236 32.062204 4.749241
3824 2 25.253279 31.544202 6.272938
3825 5 25.747703 31.697717 5.403165
3826 2 27.703352 47.631959 3.107754
3827 2 27.745975 47.649851 1.49228
3828 5 28.242338 47.918133 2.332622
3829 2 6.831217 11.602104 1.02309
3830 2 7.488781 11.975067 2.451517
3831 5 7.688734 11.677321 1.505001
3832 2 31.466756 25.60788 13.131216
3833 2 29.868802 25.82268 13.020308
3834 5 30.731777 26.22229 13.366881
3835 2 33.644934 36.649573 10.282209
3836 2 32.409199 35.640025 10.538469
3837 5 33.351677 35.877193 10.821338
3838 2 15.223536 5.276167 18.134464
3839 2 16.054993 6.057246 16.989698
3840 5 15.158061 5.651036 17.22429
3841 2 9.178997 5.566531 6.009234
3842 2 9.911519 5.273137 7.419634
3843 5 9.944611 5.828039 6.573752
3844 2 33.406391 7.96657 10.98907
3845 2 32.467854 8.325443 9.723268
3846 5 32.468923 8.089789 10.707643
3847 2 23.468009 43.228711 4.9864
3848 2 24.022996 44.678838 4.538049
3849 5 23.264911 44.017039 4.429156
3850 2 34.612951 35.690465 6.459474
3851 2 33.448143 35.728686 7.579141
3852 5 33.823694 35.205267 6.798423
3853 2 16.580113 44.178264 16.959714
3854 2 17.029149 45.566372 16.264431
3855 5 16.961702 45.069235 17.14354
3856 2 11.107703 42.173153 13.674357
3857 2 10.430661 41.575216 12.334214
3858 5 10.242481 41.957172 13.252487
3859 2 27.686003 40.654945 6.773027
3860 2 28.02945 40.76449 5.19761
3861 5 27.327301 40.949974 5.90267
3862 2 13.752273 23.292176 13.262192
3863 2 12.26304 23.077134 13.85197
3864 5 12.908885 23.758364 13.47337
3865 2 3.617329 14.920624 7.563685
3866 2 4.209891 16.368547 7.158362
3867 5 4.264129 15.374893 6.973329
3868 2 32.392074 24.730254 14.921937
3869 2 32.574107 24.509607 16.512558
3870 5 33.001612 24.894975 15.679936
3871 2 16.374986 36.590933 11.513989
3872 2 15.303225 37.095983 12.613148
3873 5 16.065954 37.383741 12.013175
3874 2 17.193963 52.271351 11.56179
3875 2 17.354454 51.743849 13.08096
3876 5 16.914372 52.44012 12.492691
3877 2 2.538461 45.01932 7.447053
3878 2 1.541856 44.166489 6.502937
3879 5 1.814839 45.100529 6.781465
3880 2 13.309667 17.796681 8.319162
3881 2 12.926109 17.709218 9.886686
3882 5 13.386316 17.230029 9.123066
3883 2 16.419246 3.446931 6.877019
3884 2 16.639221 4.15821 8.31145
3885 5 15.944674 3.838148 7.648357
3886 2 21.312793 24.016381 4.894916
3887 2 22.497091 22.975323 4.540613
3888 5 22.281701 23.947444 4.722589
3889 2 15.293354 44.167833 5.544119
3890 2 15.60956 44.117968 3.960003
3891 5 14.896767 44.311007 4.652238
3892 2 31.709054 14.364023 16.6179
3893 2 32.096038 13.697079 15.197575
3894 5 31.794282 13.502965 16.144037
3895 2 25.115106 56.236975 3.135166
3896 2 23.905802 55.668082 4.043925
3897 5 24.36507 55.596206 3.144795
3898 2 30.580056 53.173518 16.630953
3899 2 30.681184 54.428325 15.61748
3900 5 30.575465 54.159073 16.587456
3901 2 16.00168 58.236524 9.832827
3902 2 16.394676 57.788541 8.330575
3903 5 16.02086 57.467794 9.214832
3904 2 20.022519 16.278018 14.034461
3905 2 19.471223 16.484849 12.529407
3906 5 19.715261 16.958714 13.389886
3907 2 19.727737 15.996257 9.645109
3908 2 20.298997 15.212587 10.937943
3909 5 20.396619 16.043818 10.368688
3910 2 16.958977 34.262742 14.733662
3911 2 16.486705 34.628629 13.232002
3912 5 16.394274 34.878093 14.208604
3913 2 26.530241 29.232014 6.356508
3914 2 26.861999 28.062875 5.291169
3915 5 27.000383 28.371913 6.245042
3916 2 5.095137 61.256075 9.499514
3917 2 6.456321 60.577906 8.952557
3918 5 6.078357 61.279362 9.576761
3919 2 5.600167 11.02345 13.404398
3920 2 6.006679 10.943954 14.966552
3921 5 5.250416 10.822909 14.30478
3922 2 17.430404 20.092558 9.693557
3923 2 17.186517 20.171903 8.0979
3924 5 17.040211 19.609755 8.926822
3925 2 11.125037 56.270505 11.921904
3926 2 12.644038 56.312751 12.47213
3927 5 11.699844 56.014164 12.681587
3928 2 13.138699 59.152426 4.241425
3929 2 13.4949 60.609498 3.639796
3930 5 13.029239 60.1209 4.394091
3931 2 10.154824 23.750962 1.002218
3932 2 8.806825 23.660738 1.889154
3933 5 9.736485 23.281102 1.762123
3934 2 8.822331 38.112974 17.424441
3935 2 9.575738 39.443121 16.900052
3936 5 9.710585 38.496061 17.230841
3937 2 17.118311 43.552816 7.732456
3938 2 16.904362 42.556587 8.986908
3939 5 16.682393 42.713081 8.011835
3940 2 1.000655 28.800254 9.198364
3941 2 2.431617 29.469946 8.858134
3942 5 1.573527 29.581847 9.383193
3943 2 31.760143 5.959457 14.227692
3944 2 31.283634 4.967085 13.044463
3945 5 30.983711 5.464705 13.873286
3946 2 3.882663 35.836004 10.320666
3947 2 3.341417 34.464754 9.65838
3948 5 4.091334 35.144503 9.648718
3949 2 13.773122 13.672568 5.379006
3950 2 13.744755 13.143737 3.852104
3951 5 13.980407 12.897358 4.805148
3952 2 25.609088 34.824954 16.4403
3953 2 24.888661 33.687876 17.33469
3954 5 25.756209 33.958902 16.889232
3955 2 11.331816 21.538994 15.441593
3956 2 10.301983 21.530148 14.196097
3957 5 11.129253 21.094883 14.584292
3958 2 16.687573 27.707269 13.16183
3959 2 18.033767 27.412196 14.00598
3960 5 17.639373 27.462735 13.07516
3961 2 28.434612 59.1129 10.029868
3962 2 29.943742 58.59797 9.766678
3963 5 28.964023 58.366649 9.660999
3964 2 1.848298 59.922126 4.518111
3965 2 1.015654 61.266551 4.851461
3966 5 1.933533 60.897749 4.636963
3967 2 20.494319 48.765146 7.048831
3968 2 20.881271 48.072956 5.640627
3969 5 20.833623 47.932947 6.641954
3970 2 17.558729 43.740313 13.924396
3971 2 18.587847 43.088994 12.862042
3972 5 17.817917 42.893655 13.489399
3973 2 9.421411 36.633026 3.673519
3974 2 9.613559 37.808142 2.58078
3975 5 10.087877 37.079875 3.099602
3976 2 20.693828 42.64195 14.315046
3977 2 21.715834 43.856535 14.011428
3978 5 21.602553 42.977902 14.501019
3979 2 3.031378 59.247564 11.51547
3980 2 2.348407 59.684382 12.913553
3981 5 2.232697 59.673253 11.908061
3982 2 10.552866 2.888323 1.883148
3983 2 11.277523 1.745023 1.00018
3984 5 10.71244 1.916698 1.822211
3985 2 32.319063 58.807821 9.172233
3986 2 31.433281 58.113362 8.012487
3987 5 32.020702 58.906466 8.237096
3988 2 31.01048 39.104924 1.966724
3989 2 32.188897 39.642124 0.999953
3990 5 31.199855 39.703951 1.206108
3991 2 11.178107 7.009661 3.068024
3992 2 10.742876 6.701391 1.542429
3993 5 10.438041 7.099138 2.42186
3994 2 8.693593 17.417114 14.659185
3995 2 7.643114 17.462684 15.886504
3996 5 7.973615 16.910957 15.104907
3997 2 14.132911 18.490061 4.094703
3998 2 13.141556 19.621616 3.504199
3999 5 13.801327 18.894485 3.258208
4000 2 5.964471 16.139203 3.26813
4001 2 6.868462 15.036068 4.028254
4002 5 6.018731 15.181319 3.497795
4003 2 22.043975 26.388488 9.531248
4004 2 23.301097 27.39223 9.376188
4005 5 22.995047 26.508828 9.764083
4006 2 26.224419 49.822752 6.519661
4007 2 27.358157 49.340624 7.565647
4008 5 26.931579 49.150974 6.667543
4009 2 33.807805 27.679922 4.842076
4010 2 35.410358 27.568706 4.665016
4011 5 34.532297 27.079545 4.545613
4012 2 7.584606 5.603007 3.204551
4013 2 7.822746 6.884004 2.248397
4014 5 8.164361 6.388397 3.062153
4015 2 11.506859 7.442894 6.207527
4016 2 11.764361 6.135077 5.293633
4017 5 11.302185 7.034726 5.333034
4018 2 24.589672 26.050334 6.416858
4019 2 24.403108 25.954151 8.019306
4020 5 24.872596 25.550165 7.218741
4021 2 33.205591 51.078288 12.053537
4022 2 31.76678 50.435928 11.694242
4023 5 32.527789 50.431054 12.361602
4024 2 21.848338 52.515638 12.369547
4025 2 21.150345 51.721069 13.591579
4026 5 21.375452 51.682606 12.605489
4027 2 24.761971 37.633935 10.875664
4028 2 24.061532 37.312247 12.296155
4029 5 24.292125 38.046506 11.638723
4030 2 24.598475 2.693531 1.486688
4031 2 23.401797 3.078108 2.50254
4032 5 23.959619 3.406664 1.724457
4033 2 23.732081 30.411272 9.749126
4034 2 24.177488 29.237041 10.766322
4035 5 23.940833 29.44872 9.805222
4036 2 27.257974 3.246791 2.73086
4037 2 27.677668 3.44128 1.182336
4038 5 27.839375 2.892161 2.017109
4039 2 10.112972 57.308897 14.249255
4040 2 9.83414 55.747739 14.560593
4041 5 9.871169 56.674779 14.965255
4042 2 8.08409 46.798338 9.316243
4043 2 8.193788 46.782677 7.703911
4044 5 7.580333 46.972976 8.486206
4045 2 15.720949 23.133365 14.230819
4046 2 15.305102 21.753022 13.500327
4047 5 16.042386 22.22835 14.005306
4048 2 15.746282 24.903521 2.565841
4049 2 14.753989 25.388589 1.386028
4050 5 15.532827 25.661782 1.971948
4051 2 27.946429 32.872015 1.72504
4052 2 29.02214 33.837622 1.002304
4053 5 28.835401 32.887641 1.297587
4054 2 2.975164 53.095282 15.483014
4055 2 3.821816 53.104077 16.859604
4056 5 3.203839 53.646023 16.268904
4057 2 19.0983 31.987435 7.733694
4058 2 19.137402 32.401469 6.171983
4059 5 19.541702 32.581073 7.082374
4060 2 23.135019 34.934049 10.472836
4061 2 23.419498 36.33665 9.722053
4062 5 23.663064 35.76592 10.521722
4063 2 11.292045 30.080378 9.652632
4064 2 10.057145 30.610133 10.550561
4065 5 10.991536 30.222212 10.581507
4066 2 21.318328 28.483828 14.75276
4067 2 22.126163 29.265638 13.591695
4068 5 21.723096 28.376627 13.859506
4069 2 15.411749 13.748955 16.036696
4070 2 16.457664 13.723458 17.268487
4071 5 15.500504 13.919808 17.004251
4072 2 3.999424 52.501082 6.013796
4073 2 3.348508 51.408698 5.016347
4074 5 3.220517 52.320955 5.435791
4075 2 11.55486 26.998403 12.506515
4076 2 10.371821 26.314443 11.643664
4077 5 10.603003 26.740457 12.532255
4078 2 30.90894 38.26951 3.998845
4079 2 32.082179 37.304209 3.447847
4080 5 31.888085 38.177862 3.920694
4081 2 14.319992 9.198572 3.32881
4082 2 14.196341 10.708008 2.764709
4083 5 14.593801 9.79347 2.591005
4084 2 2.09787 31.136251 3.301279
4085 2 2.6093 32.650191 3.542775
4086 5 2.69655 31.691344 3.85507
4087 2 27.445223 9.300767 11.206831
4088 2 27.88481 10.291041 12.406004
4089 5 27.703666 9.326425 12.158556
4090 2 18.533913 50.076649 13.89924
4091 2 19.239098 50.260781 12.456775
4092 5 19.206653 50.605186 13.408016
4093 2 35.317063 40.469288 13.263816
4094 2 35.416476 40.143588 11.683965
4095 5 35.154624 40.844246 12.365902
4096 2 8.39985 16.991795 12.522206
4097 2 9.085884 16.770717 11.075701
4098 5 8.899452 16.34185 11.973389
4099 2 13.365421 43.779261 14.815346
4100 2 13.51175 44.386683 16.305823
4101 5 13.180248 44.575063 15.368195
4102 2 15.534584 8.483502 7.992813
4103 2 15.372316 8.015529 9.531178
4104 5 15.850817 7.828305 8.659105
4105 2 22.615951 27.477662 16.214534
4106 2 21.542509 26.738154 17.169911
4107 5 22.187845 26.608637 16.400955
4108 2 1.000743 8.193442 17.487807
4109 2 1.000045 8.73525 15.965198
4110 5 1.509416 8.736279 16.839879
4111 2 15.874542 18.768991 7.027636
4112 2 16.140356 19.362473 5.548103
4113 5 15.425863 19.06479 6.200339
4114 2 5.195733 38.572725 17.164158
4115 2 6.317987 37.758388 16.333919
4116 5 6.154943 38.343079 17.143906
4117 2 30.881625 34.664386 4.154708
4118 2 31.301001 35.472854 5.489773
4119 5 31.050851 35.567609 4.513569
4120 2 3.278692 48.376811 10.025092
4121 2 2.870768 49.93941 9.963637
4122 5 3.567299 49.258275 9.688999
4123 2 25.007757 3.612888 14.701617
4124 2 25.999295 4.564151 15.552408
4125 5 25.384104 3.761856 15.601285
4126 2 10.776648 34.160375 4.553903
4127 2 10.291868 32.840034 5.349881
4128 5 11.098191 33.339134 4.995948
4129 2 14.456107 53.417307 1.594556
4130 2 13.991069 54.847848 1.003635
4131 5 13.665982 53.949838 1.338932
4132 2 6.902629 43.517725 4.912851
4133 2 5.505084 43.706956 4.123576
4134 5 6.13756 43.028034 4.528008
4135 2 24.194153 32.186087 2.641139
4136 2 22.750643 31.493406 2.861071
4137 5 23.352769 32.253301 3.151813
4138 2 19.555936 25.622722 4.40676
4139 2 18.535304 26.704347 5.039447
4140 5 18.635759 25.973278 4.346645
4141 2 4.232292 45.444514 1.002832
4142 2 3.411933 45.444439 2.395278
4143 5 3.323633 45.440353 1.386956
4144 2 5.272207 8.330529 3.404834
4145 2 5.098078 8.296743 5.011206
4146 5 5.174371 8.901655 4.203254
4147 2 24.411622 11.917396 10.804416
4148 2 24.259114 12.308258 9.243691
4149 5 24.827418 11.809192 9.916364
4150 2 3.286993 11.357822 8.70179
4151 2 2.54148 10.60692 9.923368
4152 5 3.408694 11.036231 9.626451
4153 2 33.02292 33.547044 9.857691
4154 2 33.233059 33.642206 8.258103
4155 5 33.226322 34.171024 9.12114
4156 2 3.823961 4.775101 13.515223
4157 2 5.375755 5.087697 13.840973
4158 5 4.482585 4.838752 14.246929
4159 2 26.597126 19.482691 4.539088
4160 2 26.980492 20.424616 3.283021
4161 5 26.538491 20.4048 4.193389
4162 2 12.144878 25.137397 8.032462
4163 2 11.102884 24.827377 9.228301
4164 5 11.29626 24.681663 8.245498
4165 2 25.019769 24.157775 4.927203
4166 2 24.014626 23.829887 6.149525
4167 5 24.975922 23.778413 5.836814
4168 2 19.441302 7.311944 3.542973
4169 2 20.180048 6.44467 4.689266
4170 5 19.590715 7.249174 4.516095
4171 2 9.039483 59.063496 11.650857
4172 2 9.319225 59.093964 13.242306
4173 5 9.002526 59.639639 12.450809
4174 2 10.151867 12.706983 7.826895
4175 2 10.591486 13.947584 6.889058
4176 5 10.255746 12.992699 6.888382
4177 2 25.467949 33.374207 10.963005
4178 2 25.141559 31.797948 11.107131
4179 5 25.879495 32.4907 11.115575
4180 2 34.890837 38.018496 11.469085
4181 2 34.85458 38.330653 13.054373
4182 5 34.297261 38.053184 12.256292
4183 2 11.440502 21.219096 3.238358
4184 2 11.717308 21.02747 4.819039
4185 5 11.200885 21.56188 4.131842
4186 2 15.113827 9.452057 15.529827
4187 2 15.497846 8.055757 16.247301
4188 5 15.015358 8.937621 16.365823
4189 2 32.244553 10.303261 4.181753
4190 2 32.523934 10.721493 5.717632
4191 5 32.161292 11.043074 4.829035
4192 2 29.086262 31.765009 6.68049
4193 2 27.619437 31.142115 6.411557
4194 5 28.602943 31.061047 6.186454
4195 2 27.32367 46.53725 5.630066
4196 2 27.033452 47.007709 7.14873
4197 5 26.729308 46.393191 6.404155
4198 2 12.592333 48.299696 2.573534
4199 2 13.691652 48.899571 3.595074
4200 5 13.466103 48.755434 2.618918
4201 2 15.560965 3.777885 1.021381
4202 2 16.119152 4.169793 2.486554
4203 5 15.354971 3.734825 1.985198
4204 2 13.476735 23.793526 9.184634
4205 2 12.481617 23.603115 10.443752
4206 5 13.452192 23.649724 10.160313
4207 2 14.290385 20.370882 7.730416
4208 2 14.852145 19.404518 8.897662
4209 5 15.010242 20.270131 8.397414
4210 2 29.409493 13.122832 13.936545
4211 2 29.803974 12.483762 15.367584
4212 5 30.172991 12.865168 14.505677
4213 2 20.095547 12.691933 14.431748
4214 2 20.21106 13.16317 15.973334
4215 5 19.694252 13.283744 15.111418
4216 2 11.192259 54.467912 10.583405
4217 2 10.897782 54.150283 9.026391
4218 5 10.6218 54.717282 9.818145
4219 2 18.058354 13.78527 4.245911
4220 2 19.331513 13.479056 3.298707
4221 5 18.607043 14.152671 3.51298
4222 2 10.541489 27.46474 4.147194
4223 2 10.874186 27.533449 2.567166
4224 5 11.188476 27.176294 3.460581
4225 2 29.961191 50.046911 7.713358
4226 2 31.232839 49.646167 8.626709
4227 5 30.945058 49.974546 7.713541
4228 2 32.623397 19.464187 12.820064
4229 2 31.637313 20.445453 13.642651
4230 5 31.990101 20.214289 12.722526
4231 2 7.667893 13.239684 7.803973
4232 2 7.383305 12.969408 9.371728
4233 5 7.781396 12.57843 8.527224
4234 2 16.441152 33.764703 6.553351
4235 2 17.070364 32.3134 6.884573
4236 5 17.029801 33.056839 6.198876
4237 2 22.485744 15.686842 11.074768
4238 2 22.780786 16.130508 9.548987
4239 5 22.805147 15.357141 10.20155
4240 2 8.860713 52.066226 2.105528
4241 2 9.587066 52.996761 1.001711
4242 5 9.726154 52.247738 1.668154
4243 2 29.601532 39.204355 12.11827
4244 2 30.140866 38.156436 11.01243
4245 5 30.244431 38.471151 11.968859
4246 2 11.440276 34.494979 15.346752
4247 2 12.046977 34.037839 13.920277
4248 5 11.905377 33.758927 14.882921
4249 2 22.834932 45.02657 8.475843
4250 2 21.827421 44.886761 9.731738
4251 5 22.72128 45.252923 9.429299
4252 2 34.245935 13.728318 5.940923
4253 2 33.519459 12.455996 6.623069
4254 5 33.506239 13.085032 5.830184
4255 2 27.657159 0.990279 8.485457
4256 2 27.354248 1.028551 10.07249
4257 5 27.078487 1.399184 9.171872
4258 2 4.576374 23.575476 6.974733
4259 2 4.886028 24.417182 5.630285
4260 5 5.285427 23.801032 6.326968
4261 2 12.605033 37.990165 12.428586
4262 2 12.544541 38.172866 10.82395
4263 5 12.904846 38.564771 11.684832
4264 2 17.67247 24.272735 10.71159
4265 2 17.114724 25.788878 10.665487
4266 5 17.298141 24.961255 10.112382
4267 2 4.85705 51.697071 1.001901
4268 2 4.447612 52.025366 2.530456
4269 5 4.25797 51.425846 1.737273
4270 2 28.483549 56.594932 13.775061
4271 2 27.899115 57.784608 14.699724
4272 5 27.917304 56.782149 14.560902
4273 2 20.704855 50.207447 2.524719
4274 2 21.826895 50.170936 3.687298
4275 5 21.193787 49.60622 3.135214
4276 2 13.327281 39.987523 13.312535
4277 2 11.744593 39.933376 12.989949
4278 5 12.514634 40.541809 13.237685
4279 2 4.442861 34.214267 11.71135
4280 2 2.884273 34.404734 12.093998
4281 5 3.805728 34.209392 12.464522
4282 2 5.755024 42.691789 12.237179
4283 2 5.240611 44.199571 12.508967
4284 5 4.956567 43.229697 12.452475
4285 2 12.652723 35.036966 2.053804
4286 2 11.919851 35.744927 3.30823
4287 5 12.151517 34.855633 2.883949
4288 2 23.256713 7.713382 11.516794
4289 2 23.152075 6.162624 11.959618
4290 5 23.656357 6.821828 11.380242
4291 2 29.839426 6.058646 2.707819
4292 2 29.946854 6.389787 1.129623
4293 5 30.149621 6.734421 2.059484
4294 2 1.293503 15.268876 12.765597
4295 2 1.653082 14.102992 11.705732
4296 5 0.996868 14.394046 12.419314
4297 2 24.045851 54.018651 5.964601
4298 2 22.815153 52.971205 5.953017
4299 5 23.585599 53.343229 5.412149
4300 2 5.437997 1.20052 14.742989
4301 2 5.795895 1.738521 16.224326
4302 5 5.628305 2.015504 15.265305
4303 2 18.391376 43.361381 15.92236
4304 2 17.187929 42.286828 16.016941
4305 5 18.104711 42.464934 15.626664
4306 2 28.064612 38.038088 10.293376
4307 2 26.915963 37.269794 11.131364
4308 5 27.424358 37.288467 10.256314
4309 2 25.436261 17.695585 14.155874
4310 2 25.370919 18.177871 15.696986
4311 5 24.877 18.173064 14.8135
4312 2 14.847278 35.5981 2.007283
4313 2 15.409047 34.986922 3.393924
4314 5 14.767879 34.833695 2.62584
4315 2 17.392687 58.296489 14.433886
4316 2 17.387058 59.591882 15.40023
4317 5 16.820263 58.842954 15.0229
4318 2 15.648173 11.584856 15.482039
4319 2 16.51037 10.781742 16.588167
4320 5 16.071265 11.667105 16.369428
4321 2 9.471818 32.987152 12.911772
4322 2 8.023773 33.328357 12.280391
4323 5 8.603417 33.413122 13.105834
4324 2 32.650836 29.959926 14.296359
4325 2 33.284968 29.489603 15.706526
4326 5 32.645798 30.139433 15.266402
4327 2 9.652665 38.64356 4.611882
4328 2 9.097994 38.700341 6.128791
4329 5 9.027057 38.215399 5.243169
4330 2 28.03261 32.314947 11.61032
4331 2 28.857955 33.236861 12.649923
4332 5 27.939286 32.887164 12.408498
4333 2 30.975724 45.784626 5.543046
4334 2 30.515454 45.562334 7.076224
4335 5 31.065301 45.179891 6.317321
4336 2 15.455812 59.320374 16.681848
4337 2 15.164572 58.037997 17.621307
4338 5 15.832352 58.46214 16.98988
4339 2 6.649329 20.829458 2.869882
4340 2 6.4824 20.410917 1.317834
4341 5 6.25189 21.110701 2.011876
4342 2 22.192692 8.949668 14.942411
4343 2 22.455246 8.454132 13.426692
4344 5 22.037909 8.204711 14.314468
4345 2 23.284871 27.165944 11.843577
4346 2 23.721746 27.628022 13.329349
4347 5 23.468797 27.955564 12.405629
4348 2 12.557586 12.303416 1.302717
4349 2 11.54185 12.575811 2.529899
4350 5 11.664364 12.656211 1.528373
4351 2 33.982303 13.66881 16.33475
4352 2 34.796168 12.275176 16.249283
4353 5 33.89564 12.692601 16.447608
4354 2 16.496753 22.91162 3.759031
4355 2 17.692633 21.825794 3.811478
4356 5 16.704501 21.955303 3.634415
4357 2 3.591341 45.893294 11.651647
4358 2 4.02215 46.242186 10.133565
4359 5 4.369143 46.024199 11.059094
4360 2 7.562842 18.309026 1.556287
4361 2 6.089421 18.367875 2.217696
4362 5 7.082155 18.389022 2.414059
4363 2 33.593059 16.427929 3.173115
4364 2 34.332473 16.09649 4.57144
4365 5 34.014903 15.704145 3.694091
4366 2 18.862361 47.213017 5.772594
4367 2 18.240779 48.540326 6.453609
4368 5 18.09187 47.553241 6.286229
4369 2 24.363648 51.920727 8.726639
4370 2 24.547468 52.436004 7.205917
4371 5 25.037821 52.145363 8.042344
4372 2 27.259603 32.930322 4.391278
4373 2 27.228445 34.184641 3.372647
4374 5 27.827548 33.507639 3.827918
4375 2 27.037856 11.11564 4.907122
4376 2 26.928912 10.646239 3.364498
4377 5 26.432768 10.705286 4.244771
4378 2 20.617409 20.647608 0.999896
4379 2 22.148892 20.31634 1.395771
4380 5 21.238037 19.91237 1.217785
4381 2 11.668321 32.382937 10.584277
4382 2 11.226995 31.845967 12.043315
4383 5 10.978936 32.468516 11.284746
4384 2 18.251357 23.945401 2.076929
4385 2 18.459575 23.888653 3.678591
4386 5 18.734347 23.474532 2.796814
4387 2 29.343573 38.430666 8.24163
4388 2 28.862891 38.796912 6.742729
4389 5 28.546667 38.574724 7.67823
4390 2 15.387956 44.107926 14.017106
4391 2 15.035847 45.537325 14.683989
4392 5 15.721229 44.793608 14.643206
4393 2 20.231677 45.666057 11.47515
4394 2 21.182705 46.863417 10.951919
4395 5 20.508462 46.595213 11.657604
4396 2 22.338478 35.372287 12.736876
4397 2 22.191039 36.351948 14.013756
4398 5 22.232782 36.316325 13.003055
4399 2 20.354622 7.400157 18.111875
4400 2 19.484624 6.784352 16.897057
4401 5 19.53027 6.900742 17.901496
4402 2 0.994463 42.525961 8.565203
4403 2 1.037607 42.089919 7.0096
4404 5 1.572754 42.136035 7.867515
4405 2 8.675213 45.664953 4.44369
4406 2 9.241921 46.102651 5.892537
4407 5 9.433381 45.552472 5.064785
4408 2 32.909595 21.100596 2.339317
4409 2 33.79109 20.851906 1.007771
4410 5 33.500089 20.450362 1.890158
4411 2 21.370256 30.010879 9.311127
4412 2 20.990412 31.462835 8.711596
4413 5 21.651189 30.956254 9.287161
4414 2 35.403654 19.877965 9.522361
4415 2 35.339887 20.281428 11.086026
4416 5 34.791129 20.152474 10.245334
4417 2 16.19047 60.878231 7.181291
4418 2 16.036981 61.249944 8.746592
4419 5 15.556845 61.219484 7.856048
4420 2 7.489782 20.584558 16.685701
4421 2 8.080192 19.9784 15.30879
4422 5 8.284601 20.160922 16.283177
4423 2 32.177139 51.87866 8.22438
4424 2 31.735969 51.818614 6.670784
4425 5 31.850772 52.426676 7.471788
4426 2 7.189231 32.020433 14.881824
4427 2 5.67686 31.759484 15.388319
4428 5 6.319337 31.638851 14.615533
4429 2 34.455405 9.558682 9.898999
4430 2 35.422252 8.836064 10.973674
4431 5 35.265756 9.00308 9.987702
4432 2 21.498395 24.933418 7.933462
4433 2 22.273456 25.187422 6.538235
4434 5 21.490426 24.714535 6.971559
4435 2 15.513764 24.03357 7.649273
4436 2 16.061135 24.73686 6.301065
4437 5 15.315521 24.736043 6.985599
4438 2 21.286428 61.0836 12.096397
4439 2 20.065769 60.339941 12.850623
4440 5 20.40083 61.230528 12.505491
4441 2 9.860434 34.345682 11.105821
4442 2 11.017912 34.801302 12.137592
4443 5 10.031035 34.870504 11.923555
4444 2 18.145259 38.917807 6.266734
4445 2 18.810391 37.615303 5.579
4446 5 19.001885 38.452956 6.113972
4447 2 8.154243 1.782822 7.839049
4448 2 8.079265 2.741185 9.138208
4449 5 8.219681 2.721314 8.136002
4450 2 7.784647 42.100762 12.837364
4451 2 8.796081 43.042321 11.999292
4452 5 8.263337 42.181924 11.978586
4453 2 33.012942 49.147989 6.492846
4454 2 32.412685 49.159718 4.992363
4455 5 32.547671 49.711504 5.830121
4456 2 10.838874 51.13526 15.466424
4457 2 11.214349 50.375534 16.842553
4458 5 10.453182 50.653079 16.235822
4459 2 27.26411 5.38714 2.319761
4460 2 27.434778 6.299723 0.996901
4461 5 27.928104 5.74089 1.681636
4462 2 10.881823 38.843999 15.237814
4463 2 12.29968 38.487972 14.548742
4464 5 11.858822 38.888458 15.367145
4465 2 14.959426 24.196233 11.66483
4466 2 15.964546 22.932752 11.737252
4467 5 15.872747 23.9241 11.919818
4468 2 9.355807 28.973131 9.263876
4469 2 9.439759 28.564656 7.702468
4470 5 9.978844 28.704715 8.54763
4471 2 11.550805 46.831146 4.017572
4472 2 10.236797 47.571797 4.597845
4473 5 11.083982 47.699252 4.058808
4474 2 11.822962 50.083355 7.560818
4475 2 13.121836 49.648306 8.418462
4476 5 12.7676 49.809492 7.484084
4477 2 7.490843 7.784769 9.648445
4478 2 7.163131 9.082258 8.742343
4479 5 7.116389 8.697013 9.677184
4480 2 21.871505 20.113955 5.307798
4481 2 21.402813 20.045976 6.852985
4482 5 21.410055 19.54848 5.971525
4483 2 15.801033 34.070574 18.11025
4484 2 16.588485 33.462902 16.836457
4485 5 16.423474 34.30052 17.380235
4486 2 17.452755 40.876448 5.549273
4487 2 18.092069 42.060908 6.443827
4488 5 17.47105 41.855205 5.671461
4489 2 24.422119 14.560816 11.953964
4490 2 25.250043 14.082564 10.651001
4491 5 25.034637 13.865309 11.615847
4492 2 23.487657 21.292099 14.57599
4493 2 22.569434 20.167335 15.285686
4494 5 22.824078 21.146952 15.29141
4495 2 34.432512 33.671152 4.512821
4496 2 33.698078 32.333834 5.045817
4497 5 33.550486 33.245553 4.631677
4498 2 3.630457 54.666959 6.029784
4499 2 3.61574 55.792763 7.189199
4500 5 3.436539 55.617579 6.208523
4501 2 31.874936 16.348986 1.000673
4502 2 31.483869 16.09462 2.548013
4503 5 31.136819 16.079808 1.597295
4504 2 34.249466 2.512904 12.820763
4505 2 33.121587 3.628917 13.127845
4506 5 33.663819 3.184654 12.397679
4507 2 8.927337 61.054003 17.453337
4508 2 10.347981 60.408117 17.873454
4509 5 9.696184 61.159086 18.062486
4510 2 22.042142 22.52527 11.211207
4511 2 21.020115 22.880721 10.010785
4512 5 21.162504 22.924968 11.011932
4513 2 16.331098 33.161974 2.220535
4514 2 15.336684 32.82607 0.991632
4515 5 15.981966 33.510131 1.366062
4516 2 23.949167 30.18692 4.153872
4517 2 25.024661 29.141741 4.756209
4518 5 24.469969 29.963192 4.961301
4519 2 14.535837 42.717377 2.594433
4520 2 13.703113 42.731059 1.209414
4521 5 14.422726 43.202377 1.74284
4522 2 9.416221 45.272595 10.310502
4523 2 9.506179 45.499545 11.908093
4524 5 9.048071 45.801457 11.057497
4525 2 13.18228 6.11094 3.031055
4526 2 13.004985 5.884074 1.440774
4527 5 13.438453 6.465554 2.146829
4528 2 28.888939 39.657595 15.379785
4529 2 28.186997 38.729121 14.258577
4530 5 28.910264 39.417854 14.423072
4531 2 22.888448 3.108038 14.986465
4532 2 23.355165 2.848223 13.461156
4533 5 23.125344 2.401578 14.339915
4534 2 4.737816 17.184337 9.287705
4535 2 5.015803 15.713082 9.896003
4536 5 5.452128 16.54252 9.513669
4537 2 6.072432 12.680725 3.977956
4538 2 4.755179 13.555545 4.31177
4539 5 5.177444 12.924705 3.642247
4540 2 18.506478 30.702581 4.941143
4541 2 18.111012 30.415872 6.481695
4542 5 18.660526 30.088102 5.697394
4543 2 16.840508 19.151489 3.48314
4544 2 18.1482 18.970722 4.415428
4545 5 17.464715 18.481987 3.851058
4546 2 12.747472 50.730343 2.001911
4547 2 11.667175 50.01957 1.032553
4548 5 12.06963 50.906773 1.307193
4549 2 32.748045 20.978574 15.899539
4550 2 32.757322 21.527938 17.41941
4551 5 32.8202 21.796974 16.445658
4552 2 5.702912 60.571253 65.099865
4553 2 7.200142 60.035734 65.388687
4554 5 6.234065 59.757678 65.270755
4555 2 5.561581 28.196927 74.619176
4556 2 6.298067 29.56607 74.177665
4557 5 5.904811 29.057053 74.959188
4558 2 14.806129 16.301172 65.433825
4559 2 13.931527 17.070751 64.313685
4560 5 14.555229 16.291052 64.479792
4561 2 35.192264 4.662791 61.525187
4562 2 34.808332 4.156506 60.039196
4563 5 34.43499 4.412802 60.944434
4564 2 7.52484 58.889769 58.678151
4565 2 7.140972 59.221459 60.212597
4566 5 6.84989 58.726698 59.378924
4567 2 33.388969 37.733777 67.50461
4568 2 33.166793 37.153293 68.996445
4569 5 32.770922 37.740806 68.273506
4570 2 12.788713 15.532819 62.817917
4571 2 13.942737 14.408292 62.693163
4572 5 13.05274 14.631693 63.120392
4573 2 1.344541 17.052207 69.576738
4574 2 2.351123 17.240006 70.827106
4575 5 1.739627 17.723852 70.181743
4576 2 31.662188 51.067332 68.297578
4577 2 32.87338 50.424907 69.153263
4578 5 31.916934 50.753222 69.197394
4579 2 28.906387 55.665054 63.79979
4580 2 29.615867 54.525664 64.699969
4581 5 29.73026 55.446967 64.296682
4582 2 23.30447 56.239967 76.142208
4583 2 22.474627 57.389643 75.366643
4584 5 22.479499 56.779971 76.174605
4585 2 26.631776 50.413063 74.002567
4586 2 25.748042 51.720092 73.652446
4587 5 26.512719 51.369041 74.215081
4588 2 9.155853 13.887351 75.376715
4589 2 7.754101 13.905224 76.18087
4590 5 8.553232 13.336642 75.930609
4591 2 27.149319 43.579086 68.781572
4592 2 25.647514 43.291054 69.304559
4593 5 26.213837 43.475194 68.486086
4594 2 9.063188 21.343443 73.577763
4595 2 7.813222 22.019095 72.807713
4596 5 8.667226 21.489557 72.686081
4597 2 5.137721 40.643528 67.066331
4598 2 6.246267 40.271697 68.182021
4599 5 6.06492 40.822043 67.352105
4600 2 17.949627 53.820126 66.59985
4601 2 18.320676 53.530907 65.053703
4602 5 18.692577 53.816213 65.950819
4603 2 35.434319 47.294574 67.84356
4604 2 35.399585 46.769184 66.315602
4605 5 34.959994 46.690937 67.223987
4606 2 18.212163 23.583336 66.450492
4607 2 18.170294 23.034842 67.970129
4608 5 18.672109 22.991762 67.092147
4609 2 24.821411 3.125622 60.655298
4610 2 26.019065 2.773347 61.681662
4611 5 25.534033 3.525133 61.208282
4612 2 6.54265 17.087214 65.714877
4613 2 5.791968 17.972694 66.839287
4614 5 6.307839 18.011 65.969265
4615 2 30.106541 23.475727 68.167685
4616 2 30.596827 23.786607 66.659419
4617 5 30.835694 23.31541 67.522809
4618 2 25.887647 21.869562 60.698095
4619 2 27.340682 21.701256 61.385305
4620 5 26.848143 22.059144 60.576696
4621 2 13.702911 59.006769 70.277152
4622 2 13.005324 57.74425 71.006065
4623 5 13.643621 58.022045 70.271263
4624 2 14.496375 27.951848 62.137102
4625 2 14.278086 28.260962 63.708309
4626 5 13.941633 28.46062 62.774787
4627 2 18.208993 56.564657 76.171639
4628 2 18.701302 55.025331 76.170653
4629 5 18.999226 55.985738 76.054953
4630 2 24.94876 19.009958 65.135265
4631 2 23.584686 18.181375 64.881005
4632 5 24.209307 18.542277 65.591023
4633 2 10.604949 28.434001 58.99634
4634 2 9.264044 27.963672 58.226494
4635 5 10.243925 27.75804 58.375075
4636 2 21.434205 20.288956 61.060748
4637 2 21.934864 20.449827 59.532561
4638 5 22.102151 19.970591 60.408275
4639 2 35.41442 11.496915 61.243667
4640 2 34.647216 11.168708 62.627709
4641 5 35.377458 10.861734 61.997596
4642 2 32.070513 18.106157 64.893773
4643 2 32.615676 16.976698 65.913094
4644 5 31.802891 17.308947 65.409589
4645 2 9.374077 26.17072 65.848815
4646 2 10.393765 26.878023 64.813512
4647 5 10.317949 26.202704 65.56366
4648 2 32.595139 53.984646 75.363365
4649 2 32.019895 52.710761 76.174664
4650 5 31.781036 53.609772 75.775598
4651 2 21.724792 19.908526 69.492501
4652 2 21.728129 19.947384 67.876836
4653 5 21.277324 20.306904 68.70873
4654 2 23.658872 41.195286 65.923939
4655 2 23.109858 41.141148 64.404877
4656 5 23.024669 41.614727 65.295379
4657 2 6.861698 10.791331 68.287418
4658 2 8.091966 10.264247 69.193243
4659 5 7.815035 10.53916 68.259295
4660 2 16.944157 16.092642 72.315748
4661 2 18.212792 16.711437 73.102866
4662 5 17.766613 16.624661 72.198475
4663 2 34.030943 32.766286 68.488485
4664 2 34.607969 33.035095 69.973974
4665 5 34.17782 33.467819 69.166356
4666 2 25.259908 21.610489 69.272198
4667 2 25.548183 20.866408 67.866802
4668 5 25.213226 20.738418 68.813348
4669 2 15.617996 4.142025 66.129849
4670 2 14.376773 4.998669 65.548968
4671 5 15.007381 4.889712 66.333181
4672 2 24.619828 34.795631 68.891527
4673 2 24.329546 34.876867 67.30375
4674 5 24.47268 35.42254 68.144155
4675 2 2.355677 13.74014 61.042267
4676 2 2.684425 12.50061 62.025824
4677 5 2.992227 13.415969 61.722669
4678 2 18.811908 34.919921 63.693947
4679 2 17.495633 35.853416 63.782833
4680 5 17.895864 34.965163 64.057329
4681 2 25.610417 36.300051 65.955076
4682 2 24.873307 37.523085 65.198272
4683 5 25.760204 37.188472 65.553202
4684 2 8.115123 61.279304 67.111923
4685 2 9.276014 60.159117 67.208926
4686 5 9.070046 61.110309 66.93083
4687 2 26.087892 22.257653 63.67569
4688 2 27.009877 21.214777 64.496818
4689 5 26.253997 21.883598 64.573311
4690 2 17.208553 16.677825 60.462359
4691 2 15.642498 17.033282 60.644067
4692 5 16.420814 16.516858 61.034013
4693 2 33.939092 17.41881 68.336142
4694 2 32.335689 17.462928 68.138537
4695 5 33.079952 17.249375 68.790454
4696 2 29.302229 45.332411 64.678026
4697 2 30.370666 46.076647 63.720711
4698 5 29.505935 45.550837 63.7378
4699 2 26.991786 19.486025 69.140801
4700 2 28.192772 19.386606 68.063933
4701 5 27.483291 19.994654 68.453087
4702 2 25.705037 2.259914 76.109812
4703 2 24.975904 1.3688 74.975715
4704 5 24.996649 1.589104 75.963421
4705 2 22.343677 36.854759 65.962097
4706 2 22.996468 36.589928 64.507579
4707 5 22.182261 36.944783 64.99304
4708 2 21.267745 13.469273 67.649069
4709 2 22.051665 13.206057 69.037623
4710 5 21.785266 13.911912 68.362843
4711 2 33.889774 43.004509 64.1891
4712 2 33.788119 41.864307 65.329933
4713 5 33.511141 42.804669 65.077881
4714 2 16.621919 32.146748 68.798493
4715 2 18.027852 32.62291 69.437647
4716 5 17.430444 32.684025 68.622849
4717 2 7.776284 52.46333 59.053689
4718 2 7.261929 52.654358 60.573835
4719 5 7.074155 52.193955 59.69219
4720 2 28.872085 35.332268 76.172079
4721 2 28.608274 36.65399 75.280254
4722 5 28.273875 36.109412 76.0652
4723 2 18.103684 53.798624 71.897278
4724 2 17.091843 53.858997 73.156019
4725 5 17.903802 53.391288 72.773267
4726 2 24.132796 44.371588 72.454624
4727 2 22.580654 44.821742 72.465158
4728 5 23.535727 45.1569 72.45955
4729 2 17.718856 33.464272 62.458601
4730 2 16.696895 32.219152 62.327578
4731 5 16.793939 33.175635 62.644201
4732 2 23.358235 53.29056 66.729496
4733 2 24.652291 53.765464 65.885824
4734 5 24.119872 52.962189 66.19535
4735 2 17.655406 6.098513 68.866245
4736 2 16.521398 6.297918 70.000334
4737 5 16.744739 5.82793 69.132142
4738 2 14.1685 34.490203 73.802533
4739 2 15.403986 33.790314 74.574301
4740 5 15.116041 34.607394 74.050856
4741 2 30.762259 26.08732 61.361325
4742 2 31.804229 26.148125 62.59522
4743 5 31.493056 26.619999 61.755557
4744 2 21.79277 45.505504 70.537877
4745 2 20.221053 45.795636 70.298249
4746 5 21.158157 46.131996 70.115971
4747 2 33.242855 57.358192 63.741688
4748 2 31.838066 57.197586 64.524421
4749 5 32.56302 56.700706 64.022345
4750 2 14.374058 14.600519 70.318565
4751 2 13.098542 15.592754 70.297944
4752 5 14.101049 15.536797 70.169973
4753 2 13.774799 4.184254 76.189765
4754 2 14.443261 4.178066 74.718366
4755 5 13.573158 4.092668 75.22842
4756 2 1.693706 15.655231 66.41169
4757 2 1.139699 14.817797 67.678054
4758 5 1.725988 14.774066 66.854112
4759 2 15.590734 19.891288 70.782037
4760 2 15.637481 20.669848 72.197507
4761 5 15.077235 20.490827 71.373733
4762 2 30.471963 1.221954 73.029766
4763 2 29.276359 0.985822 74.091211
4764 5 30.281392 1.023674 73.977182
4765 2 29.539915 13.426555 60.300676
4766 2 29.374853 14.928319 60.874571
4767 5 29.781348 14.018488 61.052046
4768 2 22.626998 14.195919 73.540257
4769 2 21.313652 13.795833 74.39287
4770 5 21.863945 14.569406 74.041743
4771 2 8.120857 45.734765 70.817634
4772 2 9.434988 45.881554 71.746832
4773 5 8.428162 45.982545 71.721736
4774 2 9.286871 35.517757 58.578992
4775 2 9.441974 36.221194 60.025718
4776 5 9.046629 36.320771 59.099265
4777 2 5.860429 1.967673 66.338313
4778 2 6.913822 1.139665 65.43462
4779 5 6.224771 1.066031 66.172395
4780 2 15.540103 12.609636 70.462511
4781 2 15.24493 11.365585 71.450999
4782 5 15.815609 12.189872 71.311703
4783 2 22.818502 52.276964 61.09214
4784 2 21.889646 51.404716 60.098004
4785 5 22.666285 51.3658 60.745959
4786 2 32.424321 61.287455 64.485861
4787 2 33.009061 61.11395 65.98248
4788 5 33.075364 60.782466 65.02841
4789 2 11.327916 51.498981 60.771715
4790 2 12.416523 50.954078 59.708742
4791 5 11.703253 50.678833 60.372077
4792 2 26.603417 27.263935 66.695253
4793 2 27.170502 26.459239 65.413545
4794 5 27.287775 27.286374 65.985054
4795 2 31.166805 24.050016 74.574957
4796 2 30.532433 22.597846 74.257672
4797 5 30.351119 23.503604 74.671502
4798 2 6.274253 59.921031 63.077335
4799 2 7.078898 60.897095 62.071483
4800 5 7.136915 60.045289 62.615162
4801 2 5.420752 9.466738 73.7152
4802 2 5.218681 11.053528 73.945766
4803 5 5.878945 10.289058 74.010296
4804 2 2.842899 31.713687 61.220111
4805 2 2.600316 30.709266 62.462765
4806 5 3.281766 31.039448 61.7911
4807 2 33.647996 55.055295 61.525759
4808 2 34.877699 55.984745 61.040115
4809 5 33.897241 55.776006 60.899912
4810 2 5.411405 17.316702 61.56649
4811 2 5.268925 17.169745 59.963369
4812 5 4.880489 17.609366 60.788219
4813 2 10.76239 56.8613 62.046614
4814 2 10.675812 56.378108 60.506833
4815 5 10.733617 56.063429 61.467126
4816 2 11.236858 24.352277 64.240979
4817 2 12.6833 23.976021 63.626056
4818 5 11.79371 23.600051 63.929047
4819 2 20.763459 24.443928 65.366841
4820 2 22.061648 25.134249 66.037703
4821 5 21.723916 24.313716 65.550682
4822 2 26.687472 43.08357 76.003256
4823 2 27.129108 42.894964 74.460116
4824 5 27.214624 42.514183 75.394044
4825 2 9.699695 31.764355 64.980206
4826 2 9.297757 32.236205 63.487659
4827 5 9.773694 32.509641 64.338097
4828 2 31.557892 40.551513 64.729552
4829 2 30.115865 40.304664 65.416225
4830 5 30.5863 40.647991 64.588369
4831 2 16.225536 22.079383 61.41333
4832 2 15.846183 20.561057 61.010002
4833 5 15.613159 21.535142 60.863761
4834 2 26.235979 0.999884 68.075018
4835 2 26.357147 1.271039 66.486406
4836 5 26.70782 1.539452 67.39718
4837 2 2.753886 10.335048 71.002014
4838 2 3.352839 9.695308 72.359911
4839 5 3.414541 10.47765 71.720645
4840 2 14.956148 59.167976 65.769385
4841 2 16.1988 60.101416 66.212554
4842 5 15.418853 59.552359 66.551296
4843 2 2.400362 39.439388 63.463344
4844 2 3.196505 40.654984 62.755969
4845 5 3.21406 39.994043 63.522374
4846 2 32.087431 42.015244 70.884106
4847 2 31.631535 42.405359 69.383485
4848 5 32.030995 42.762314 70.242287
4849 2 19.041584 53.525208 69.9258
4850 2 19.246592 53.443171 68.32482
4851 5 19.617727 53.148394 69.219187
4852 2 25.017423 12.323725 70.853421
4853 2 24.766157 11.182494 69.73702
4854 5 24.31949 11.887959 70.309152
4855 2 6.368816 6.566269 66.912006
4856 2 5.083171 5.701189 66.453042
4857 5 5.570276 6.094617 67.248322
4858 2 24.672068 18.273689 74.368038
4859 2 25.304174 17.702287 75.741296
4860 5 25.439976 17.779447 74.74123
4861 2 35.140843 49.271953 61.508707
4862 2 34.128143 48.609509 60.437492
4863 5 34.186284 49.146734 61.293376
4864 2 15.582426 17.00879 70.848068
4865 2 17.048093 17.055297 70.16869
4866 5 16.394993 17.56031 70.754309
4867 2 4.006722 42.631546 72.174382
4868 2 4.483694 44.087406 71.659729
4869 5 3.686017 43.538001 71.953657
4870 2 26.056638 51.6377 70.415124
4871 2 26.271412 50.734587 69.09219
4872 5 25.582001 51.19866 69.67001
4873 2 6.075379 50.542038 72.150378
4874 2 7.481168 51.307087 71.925982
4875 5 6.496154 51.433858 72.121441
4876 2 5.393331 12.107942 69.260737
4877 2 4.911347 13.354498 68.352064
4878 5 5.345343 12.440268 68.333112
4879 2 19.913607 58.899978 71.189892
4880 2 18.982078 59.456676 69.992295
4881 5 19.831549 59.618101 70.518479
4882 2 27.172934 23.763418 62.479524
4883 2 26.871205 24.225306 60.960473
4884 5 27.285422 24.506312 61.840239
4885 2 17.518189 19.26956 69.924004
4886 2 17.769982 19.097613 71.511118
4887 5 18.149856 18.911107 70.59164
4888 2 3.497804 44.926247 64.276487
4889 2 3.69263 44.906187 62.672262
4890 5 3.735792 45.486718 63.500301
4891 2 34.902175 47.800864 64.442348
4892 2 35.413221 47.280686 63.000078
4893 5 34.641563 47.266692 63.654964
4894 2 26.93912 12.541351 75.865128
4895 2 26.436108 13.765104 74.937065
4896 5 27.208812 13.411779 75.48717
4897 2 25.202909 25.533236 76.171597
4898 2 24.41683 26.642774 75.298156
4899 5 24.58034 25.650784 75.415409
4900 2 18.873184 29.11376 69.861457
4901 2 18.011705 30.467417 70.054752
4902 5 18.455038 29.696768 70.538573
4903 2 16.490112 29.092717 69.256624
4904 2 16.24185 29.04678 67.660331
4905 5 15.935943 29.464525 68.530065
4906 2 12.229281 52.850218 62.294948
4907 2 10.975041 52.789809 63.312362
4908 5 11.25977 53.01735 62.368072
4909 2 5.145386 54.070455 76.26307
4910 2 5.532401 54.601207 74.786447
4911 5 5.560026 54.820356 75.774241
4912 2 10.272516 41.899489 76.185122
4913 2 10.433111 42.26809 74.619799
4914 5 10.714463 42.520459 75.558776
4915 2 19.650978 13.7523 70.854924
4916 2 19.830728 14.242218 69.32536
4917 5 20.311848 14.083508 70.201637
4918 2 13.209479 8.731397 67.95691
4919 2 13.917055 10.064197 68.535595
4920 5 13.666864 9.106357 68.746489
4921 2 22.679931 8.722362 64.419752
4922 2 22.51267 9.948731 65.458952
4923 5 22.925766 9.66427 64.579771
4924 2 2.470563 5.98317 69.328779
4925 2 4.019873 5.868013 68.8835
4926 5 3.145157 6.345739 68.706929
4927 2 7.69487 36.403283 64.565567
4928 2 9.080025 37.235012 64.527243
4929 5 8.170062 37.129619 64.096675
4930 2 28.608932 22.57484 58.325826
4931 2 27.187937 23.223009 58.741213
4932 5 28.125175 23.016995 59.063192
4933 2 25.781239 44.854064 74.143158
4934 2 26.219994 45.206336 72.628135
4935 5 26.53083 44.804717 73.503698
4936 2 9.067177 57.542769 68.347678
4937 2 8.611608 58.13387 69.781189
4938 5 8.887295 58.379294 68.838697
4939 2 5.7152 18.982907 64.065427
4940 2 4.453262 18.55294 63.151898
4941 5 5.319128 18.230485 63.565208
4942 2 8.436514 30.479236 58.713622
4943 2 7.79177 29.912834 60.083071
4944 5 8.534899 29.785208 59.407795
4945 2 25.073402 14.529051 62.396972
4946 2 24.58551 13.706467 61.094201
4947 5 25.386985 14.114794 61.558351
4948 2 31.962141 14.271417 61.187642
4949 2 32.676712 14.404482 59.744181
4950 5 31.78546 14.38279 60.223479
4951 2 5.239067 32.759371 66.120681
4952 2 4.114856 31.693142 66.580248
4953 5 4.285237 32.524779 66.028996
4954 2 3.60842 52.544411 75.876159
4955 2 3.635187 53.375224 74.490183
4956 5 3.246938 53.343464 75.424411
4957 2 33.388567 53.920232 73.317422
4958 2 33.327444 54.224874 71.731436
4959 5 33.186101 54.620248 72.652429
4960 2 35.151438 33.419467 62.313756
4961 2 34.956479 32.417434 61.060833
4962 5 34.556458 32.728605 61.937008
4963 2 35.049071 28.597103 65.074119
4964 2 34.986315 28.33719 66.667983
4965 5 35.136567 29.03734 65.952622
4966 2 27.536894 17.371741 60.86651
4967 2 27.219499 18.594742 61.874193
4968 5 26.992077 17.635294 61.645577
4969 2 6.91027 14.226646 72.492009
4970 2 7.442127 14.068611 74.009918
4971 5 7.57677 14.562897 73.136946
4972 2 1.97327 9.30002 60.057555
4973 2 1.414125 10.3424 61.158779
4974 5 1.486595 10.151074 60.167482
4975 2 3.898844 15.691017 61.323633
4976 2 3.587714 16.060621 62.865868
4977 5 3.197316 15.671421 62.016962
4978 2 34.474974 61.170956 62.56952
4979 2 33.586243 59.839228 62.34917
4980 5 33.75501 60.781106 62.019155
4981 2 4.302429 61.278397 72.308793
4982 2 3.784746 61.28566 73.839756
4983 5 3.846217 60.733935 72.993382
4984 2 30.653703 17.093885 60.36515
4985 2 29.604124 17.911716 59.447854
4986 5 29.754261 17.49911 60.359853
4987 2 3.182971 4.986183 75.164656
4988 2 3.851795 5.760486 73.913645
4989 5 4.033454 5.348428 74.820142
4990 2 5.314565 38.940867 73.416562
4991 2 5.219429 40.553342 73.363932
4992 5 5.804394 39.770666 73.628059
4993 2 10.604815 38.679755 61.972409
4994 2 9.665107 39.54017 60.97816
4995 5 9.812133 38.626231 61.387582
4996 2 12.622241 52.817969 64.770257
4997 2 13.684416 53.517421 65.767477
4998 5 13.474428 53.314172 64.798394
4999 2 35.418448 53.178484 72.906264
5000 2 35.41738 54.660075 72.260676
5001 5 35.427826 53.669916 72.050905
5002 2 0.999999 28.761755 62.562963
5003 2 1.766692 29.103102 63.944108
5004 5 1.076202 28.502429 63.511738
5005 2 4.497369 17.986273 73.792688
5006 2 3.333346 18.399356 72.750426
5007 5 3.701293 17.647071 73.318942
5008 2 33.647459 8.094638 72.246532
5009 2 33.010904 8.633186 70.862098
5010 5 33.5547 8.893482 71.675153
5011 2 31.154309 19.356899 62.625314
5012 2 30.62248 19.38042 61.099371
5013 5 30.6805 19.9101 61.959953
5014 2 20.513871 7.034101 74.567382
5015 2 20.377964 7.039013 76.177786
5016 5 20.92945 7.37052 75.396446
5017 2 7.392923 2.451606 74.418462
5018 2 7.44026 0.984912 73.741362
5019 5 7.544877 1.976524 73.567323
5020 2 33.388295 11.419891 65.711234
5021 2 31.818279 11.179481 65.412654
5022 5 32.523338 11.212892 66.138122
5023 2 19.571623 5.134417 60.514599
5024 2 20.166827 5.130774 59.012063
5025 5 19.360777 5.36324 59.578428
5026 2 5.672795 46.062954 64.370236
5027 2 4.682575 46.180064 65.642103
5028 5 5.139324 46.699244 64.902942
5029 2 34.423973 35.565413 59.96274
5030 2 35.321712 36.571863 60.853257
5031 5 35.094097 35.599899 60.685911
5032 2 28.454686 35.778906 62.725866
5033 2 27.338351 36.941436 62.845089
5034 5 27.518341 36.003119 62.510887
5035 2 4.904165 28.978067 64.412101
5036 2 4.412204 29.581194 62.995729
5037 5 4.10334 29.222649 63.890478
5038 2 28.299476 32.772801 72.505153
5039 2 27.835985 33.260654 73.97453
5040 5 28.5514 32.763804 73.458926
5041 2 21.265468 48.397499 75.831208
5042 2 22.551709 47.426232 75.950032
5043 5 21.574533 47.532698 76.191526
5044 2 14.478002 33.250761 65.481221
5045 2 14.241473 33.036886 67.065585
5046 5 14.203544 33.70964 66.310277
5047 2 4.465407 60.194819 61.826213
5048 2 3.329588 61.284984 62.191388
5049 5 3.681239 60.359442 62.401723
5050 2 18.884803 46.678552 63.393664
5051 2 18.6318 46.389134 61.823912
5052 5 18.219663 46.761968 62.669882
5053 2 27.023084 8.822898 59.278078
5054 2 28.015737 9.879312 59.992587
5055 5 27.681077 8.924143 60.006106
5056 2 8.603787 20.380138 67.192834
5057 2 7.8554 20.603005 68.607805
5058 5 7.799615 20.138052 67.710456
5059 2 20.681651 13.606048 63.618771
5060 2 22.166237 13.147414 64.063241
5061 5 21.261626 13.4504 64.40148
5062 2 9.943741 11.413178 70.197159
5063 2 9.339812 12.040397 68.83563
5064 5 9.958656 12.211716 69.618068
5065 2 15.894081 41.372093 63.153751
5066 2 15.762064 39.781342 62.900807
5067 5 15.933598 40.674755 62.457052
5068 2 27.744659 52.25234 66.388711
5069 2 26.341814 51.957532 65.642379
5070 5 27.077611 52.640047 65.773925
5071 2 7.077767 53.21409 66.710752
5072 2 5.894231 53.238225 67.811005
5073 5 6.868252 53.456895 67.643694
5074 2 2.239625 55.339927 72.588983
5075 2 0.998703 54.769705 71.724774
5076 5 1.277754 55.462872 72.407546
5077 2 2.43981 48.892442 70.65107
5078 2 0.985574 48.89683 69.946034
5079 5 1.958246 49.151748 69.830042
5080 2 13.780282 34.801977 76.171465
5081 2 12.588176 35.203415 75.156761
5082 5 12.852746 35.135597 76.131405
5083 2 5.788258 52.153968 75.395551
5084 2 6.850261 51.420271 74.423063
5085 5 6.746043 51.947207 75.28097
5086 2 4.34258 26.791702 61.379701
5087 2 4.868729 27.437762 62.764501
5088 5 4.318378 27.60854 61.93235
5089 2 34.54038 30.457886 70.219866
5090 2 34.331021 30.39835 71.821278
5091 5 33.859957 30.35344 70.926511
5092 2 18.036872 52.282195 76.169222
5093 2 18.375498 53.246465 74.917259
5094 5 17.698007 52.598093 75.29824
5095 2 20.806838 29.794222 69.062514
5096 2 22.057382 30.036993 68.067981
5097 5 21.669227 30.265149 68.974517
5098 2 16.758871 45.392918 70.725444
5099 2 17.254828 45.1445 72.243407
5100 5 17.470555 45.612678 71.372316
5101 2 23.936859 56.431431 73.500511
5102 2 24.568844 57.31209 74.699231
5103 5 24.765557 56.866888 73.811748
5104 2 33.92251 45.188121 63.710597
5105 2 33.730491 45.921099 65.1381
5106 5 33.454592 45.125258 64.576813
5107 2 5.029935 41.133445 69.805833
5108 2 3.512794 40.6845 69.476248
5109 5 4.478342 40.380922 69.485387
5110 2 31.28134 23.524822 71.952131
5111 2 32.403339 23.570073 70.78982
5112 5 31.630019 24.071299 71.20848
5113 2 29.119605 3.61241 69.730951
5114 2 29.501136 2.04198 69.72215
5115 5 28.889237 2.738967 70.127509
5116 2 9.055719 54.575938 63.203756
5117 2 9.300182 56.141042 63.524046
5118 5 8.894385 55.488432 62.865292
5119 2 5.518842 45.866673 69.009702
5120 2 5.27982 45.900996 70.607696
5121 5 4.820432 45.865778 69.706447
5122 2 6.42715 37.445959 74.909758
5123 2 7.525825 37.306759 76.086802
5124 5 7.291255 37.030352 75.14176
5125 2 26.018814 41.93017 70.99508
5126 2 26.140999 43.064894 72.139357
5127 5 26.51053 42.745679 71.252748
5128 2 10.528138 9.517074 73.956792
5129 2 11.187175 10.850742 74.588373
5130 5 10.422579 10.49532 74.028378
5131 2 17.151377 5.747616 65.248092
5132 2 17.518512 7.31501 65.105311
5133 5 17.753937 6.381765 64.792013
5134 2 32.286151 41.41101 62.836571
5135 2 32.597608 42.235448 61.481878
5136 5 32.814933 42.157551 62.467388
5137 2 4.752524 37.636375 61.801094
5138 2 4.738301 39.216537 62.139888
5139 5 4.468391 38.299858 62.473618
5140 2 16.152912 47.378169 71.448317
5141 2 15.038351 46.995296 70.342397
5142 5 15.236558 47.580572 71.144078
5143 2 34.97608 21.596494 72.284865
5144 2 35.036287 20.733385 70.919833
5145 5 34.5771 21.504852 71.387286
5146 2 35.312618 12.972068 66.984883
5147 2 34.616418 11.629118 67.553818
5148 5 35.413125 12.246627 67.64584
5149 2 12.688163 13.286192 70.832761
5150 2 13.741017 12.951965 72.012459
5151 5 12.8414 12.70845 71.617594
5152 2 5.576472 26.398927 66.022446
5153 2 4.603415 26.527479 64.738495
5154 5 4.98542 27.020831 65.535492
5155 2 29.892557 20.261467 69.151924
5156 2 28.696481 20.662413 70.162142
5157 5 29.684218 20.450962 70.097396
5158 2 6.313623 23.123704 66.735621
5159 2 7.618604 22.348248 67.290227
5160 5 6.710551 22.229053 66.859228
5161 2 22.659656 28.427403 69.795423
5162 2 23.293137 28.235008 68.321116
5163 5 23.455592 28.102713 69.311385
5164 2 21.920506 11.388831 75.627228
5165 2 20.50204 11.570748 74.874396
5166 5 21.506127 11.642552 74.768656
5167 2 32.209019 46.62781 62.647072
5168 2 31.930786 47.207792 61.164472
5169 5 31.497022 46.935833 62.037635
5170 2 31.198103 48.080185 66.215963
5171 2 31.950609 49.371849 66.830156
5172 5 31.508202 48.992111 66.002749
5173 2 31.548187 60.783104 61.521879
5174 2 30.796442 61.27674 62.864674
5175 5 31.610282 60.793183 62.506396
5176 2 19.839575 29.78582 62.053759
5177 2 19.316598 30.325515 60.622982
5178 5 19.775241 30.589825 61.485719
5179 2 31.40721 57.678906 68.590136
5180 2 32.585423 57.419438 69.66549
5181 5 31.606572 57.261858 69.461661
5182 2 3.085312 48.48887 66.745571
5183 2 3.529482 49.784326 65.887432
5184 5 3.255066 48.8118 65.828984
5185 2 5.737734 58.264216 70.870206
5186 2 6.307673 58.347243 72.38023
5187 5 6.328647 58.782311 71.466554
5188 2 15.160123 2.874447 68.806022
5189 2 16.435984 1.887127 68.709725
5190 5 15.948595 2.650135 68.25718
5191 2 26.070201 10.518449 64.847623
5192 2 24.913791 9.621167 65.532822
5193 5 25.257188 9.993389 64.656433
5194 2 33.043201 4.835196 66.661157
5195 2 34.531799 5.262594 67.123005
5196 5 33.725301 5.543232 66.579563
5197 2 13.448942 25.346905 68.569258
5198 2 14.919751 25.005898 67.992777
5199 5 14.01309 24.617135 68.219396
5200 2 32.144267 15.096879 67.022763
5201 2 30.714917 15.75888 66.661364
5202 5 31.392833 15.613729 67.398852
5203 2 4.014539 47.620535 74.157809
5204 2 3.588658 48.132525 72.685265
5205 5 3.320044 48.114584 73.660996
5206 2 14.544485 25.051297 76.188773
5207 2 15.31251 24.536077 74.863412
5208 5 14.93767 25.349706 75.334613
5209 2 26.658306 19.188321 71.44086
5210 2 25.42897 19.128876 72.488283
5211 5 25.743009 19.51646 71.607553
5212 2 24.719691 37.765441 73.713398
5213 2 26.2069 37.803342 74.344799
5214 5 25.254904 38.127769 74.458715
5215 2 9.576389 5.27572 59.526945
5216 2 11.100837 5.774368 59.725197
5217 5 10.230952 5.573681 60.202221
5218 2 2.050536 9.989757 68.590309
5219 2 0.996824 10.526364 69.691962
5220 5 1.184183 10.448629 68.700306
5221 2 1.223521 26.904824 67.950096
5222 2 2.030798 25.864404 68.886966
5223 5 1.995594 26.291026 67.969752
5224 2 3.567896 20.562256 59.220426
5225 2 5.006215 19.825324 59.228392
5226 5 4.085296 19.839388 59.648199
5227 2 25.031781 57.808409 61.446651
5228 2 24.64185 56.453394 60.65685
5229 5 24.414918 57.432759 60.77464
5230 2 34.468225 6.06455 72.035467
5231 2 32.86377 5.982936 71.859519
5232 5 33.745467 5.573637 71.577365
5233 2 14.02381 36.850763 75.407502
5234 2 14.465972 36.757445 73.855832
5235 5 13.715342 37.013587 74.484699
5236 2 1.095037 29.665973 73.090242
5237 2 2.693039 29.880336 72.97918
5238 5 1.811022 30.3404 73.166037
5239 2 11.136206 9.205977 76.047693
5240 2 11.927126 7.805729 75.887548
5241 5 12.035593 8.800701 76.038525
5242 2 3.235396 37.352801 70.47195
5243 2 2.642522 38.688981 69.782733
5244 5 3.451421 38.083797 69.845685
5245 2 21.272761 45.569532 62.323083
5246 2 20.997967 45.331534 63.897802
5247 5 21.339788 45.992614 63.211756
5248 2 14.619099 54.609762 59.836683
5249 2 14.475321 55.446255 61.212002
5250 5 15.127892 54.973072 60.599813
5251 2 13.8079 20.450862 62.575435
5252 2 15.04698 21.334124 63.119885
5253 5 14.736973 20.395416 62.902514
5254 2 26.872301 10.597467 74.838059
5255 2 26.496826 9.320478 73.921428
5256 5 26.31772 9.782285 74.804141
5257 2 13.727732 27.120168 72.009979
5258 2 12.585289 26.863299 73.123863
5259 5 13.207683 26.415046 72.463391
5260 2 24.722506 6.999034 76.243888
5261 2 24.531206 7.546762 74.735481
5262 5 24.868067 7.781301 75.660707
5263 2 24.735635 49.823643 63.698236
5264 2 25.643994 48.891066 64.655879
5265 5 25.303067 49.016745 63.711157
5266 2 26.556977 45.48763 63.998325
5267 2 27.346868 46.864941 64.299959
5268 5 27.183062 45.920723 64.625763
5269 2 4.722062 39.183731 71.312225
5270 2 6.171905 39.891467 71.217565
5271 5 5.640053 39.066469 70.970504
5272 2 13.836899 18.339558 70.70655
5273 2 12.240882 18.093732 70.771313
5274 5 13.136018 17.795459 71.137772
5275 2 15.591088 58.484809 63.369003
5276 2 15.688098 57.135194 64.252758
5277 5 15.294072 57.545203 63.415403
5278 2 15.430879 35.508725 72.031474
5279 2 16.446726 36.22696 70.999927
5280 5 16.34872 35.475849 71.671309
5281 2 13.131717 54.494125 72.364985
5282 2 13.91161 55.762574 72.993236
5283 5 14.028539 54.872184 72.526266
5284 2 24.255609 37.946822 71.406086
5285 2 23.003018 38.795693 71.973828
5286 5 23.276415 38.050565 71.345683
5287 2 21.205509 31.264998 71.615989
5288 2 20.610754 29.806737 71.253169
5289 5 21.452189 30.368327 71.286804
5290 2 20.767925 27.462735 63.551405
5291 2 19.502355 26.868103 64.36174
5292 5 20.173479 26.679151 63.627971
5293 2 27.675981 41.01017 72.600027
5294 2 29.13709 40.320708 72.558808
5295 5 28.322822 40.559455 72.006998
5296 2 29.583195 49.701378 75.607128
5297 2 29.075445 48.278804 76.181905
5298 5 29.864103 48.91081 76.126092
5299 2 15.835181 27.875323 74.57916
5300 2 15.954582 27.942246 76.189489
5301 5 15.499653 27.474375 75.415756
5302 2 17.393109 49.099428 65.339634
5303 2 17.829954 48.785818 63.81559
5304 5 17.555687 48.369321 64.696404
5305 2 10.185279 33.341331 73.053268
5306 2 9.511994 33.83276 71.668681
5307 5 10.237092 34.028429 72.347263
5308 2 17.878025 44.628454 67.386428
5309 2 18.062544 44.486375 68.985698
5310 5 18.495654 44.816284 68.132408
5311 2 2.033423 21.105689 65.055051
5312 2 2.52946 20.58441 66.502155
5313 5 2.832517 20.973567 65.618277
5314 2 19.739391 27.12961 70.251991
5315 2 21.304854 26.87158 70.559635
5316 5 20.579857 27.576271 70.511495
5317 2 32.267428 2.490493 72.940694
5318 2 32.440122 1.416351 74.135806
5319 5 32.720039 1.650638 73.191727
5320 2 24.423031 58.451625 68.02685
5321 2 24.087052 58.594881 69.601173
5322 5 24.374415 59.097535 68.770938
5323 2 4.131138 56.193421 66.02582
5324 2 4.959102 56.108552 67.411161
5325 5 4.97526 56.45918 66.461779
5326 2 10.375415 43.459815 65.090641
5327 2 9.212606 43.492341 63.968718
5328 5 9.513655 43.878101 64.854768
5329 2 23.413043 4.159179 61.99239
5330 2 23.614183 5.533799 61.166643
5331 5 22.96575 4.784941 61.374667
5332 2 31.195408 27.704104 65.981976
5333 2 30.952464 28.23752 64.475874
5334 5 31.629643 28.16336 65.22451
5335 2 18.720823 48.635752 67.983473
5336 2 18.396049 50.15721 67.545771
5337 5 17.985982 49.262931 67.783758
5338 2 28.908851 42.793161 67.585645
5339 2 29.869998 43.969742 68.136779
5340 5 29.548912 43.489652 67.305549
5341 2 6.988289 27.126443 75.906288
5342 2 7.471052 25.607005 76.171137
5343 5 6.91226 26.201403 75.571996
5344 2 25.25102 41.554532 68.014545
5345 2 24.018468 41.842569 69.019406
5346 5 24.282736 41.740434 68.047676
5347 2 35.17102 49.503236 75.571449
5348 2 33.88272 49.938934 74.698325
5349 5 34.26038 49.877239 75.635391
5350 2 33.400751 25.134364 63.909888
5351 2 34.431396 26.191156 63.25197
5352 5 34.350656 25.281124 63.687688
5353 2 34.854828 8.748261 74.449478
5354 2 34.99595 8.76187 76.059383
5355 5 34.445414 8.41641 75.283436
5356 2 34.057677 13.206659 60.96799
5357 2 33.424671 13.225793 62.454877
5358 5 33.46537 12.712833 61.583245
5359 2 5.209076 31.503916 64.312955
5360 2 6.783871 31.736566 64.591865
5361 5 6.112748 31.217479 64.039896
5362 2 26.195776 13.277676 59.64402
5363 2 26.904819 11.828599 59.740615
5364 5 26.962518 12.747768 59.320701
5365 2 26.991585 13.207632 71.249986
5366 2 28.076432 13.803847 72.28899
5367 5 27.512261 14.014651 71.475479
5368 2 1.111719 7.668937 68.941209
5369 2 1.22786 7.845993 70.543413
5370 5 1.692601 8.013996 69.660056
5371 2 28.264241 15.911008 67.105829
5372 2 28.651037 17.47961 67.063731
5373 5 28.861051 16.590619 67.499755
5374 2 22.547424 7.375603 73.799987
5375 2 22.679902 6.717306 72.329957
5376 5 22.038192 7.140642 72.98838
5377 2 11.111426 7.146672 69.710068
5378 2 12.351823 8.072949 70.174095
5379 5 12.08522 7.272614 69.614708
5380 2 18.399971 16.645845 68.110926
5381 2 17.505946 17.74662 67.335743
5382 5 18.104536 17.586755 68.136156
5383 2 32.547781 9.185174 64.852777
5384 2 32.515852 9.021716 66.460309
5385 5 32.799976 8.58386 65.593082
5386 2 23.73112 14.919154 68.233909
5387 2 23.419784 14.063944 66.898401
5388 5 23.515449 14.998766 67.274545
5389 2 1.390858 21.531387 72.459278
5390 2 1.053999 19.959664 72.291624
5391 5 1.70063 20.695484 72.036741
5392 2 14.852035 57.9003 67.883596
5393 2 13.562145 58.758738 67.42407
5394 5 14.217808 58.596274 68.177886
5395 2 22.866682 21.811208 68.929
5396 2 22.840004 21.760165 67.313891
5397 5 23.416504 21.955254 68.122665
5398 2 35.423612 16.014137 65.179778
5399 2 34.979549 16.4059 66.683515
5400 5 34.874081 15.721686 65.945101
5401 2 5.836728 1.175265 72.251334
5402 2 4.518257 1.869104 72.877526
5403 5 5.021481 0.996604 72.777341
5404 2 28.438276 52.082574 71.207979
5405 2 27.418914 51.182578 72.081366
5406 5 28.33098 51.203637 71.642938
5407 2 21.225663 22.448928 60.115459
5408 2 20.713325 22.046567 58.636435
5409 5 20.91914 22.821058 59.254765
5410 2 10.584164 18.074113 66.609734
5411 2 10.870336 17.380497 68.041131
5412 5 11.008486 17.295457 67.042026
5413 2 10.33504 3.309011 76.110898
5414 2 8.905202 3.933595 75.689763
5415 5 9.767784 4.112421 76.188262
5416 2 20.801398 37.251617 73.368231
5417 2 22.347912 37.335838 73.829857
5418 5 21.598701 37.832587 73.364614
5419 2 2.500394 59.57015 74.333775
5420 2 3.998634 59.383072 74.91012
5421 5 3.0562 59.669861 75.142706
5422 2 19.272216 55.464136 70.939249
5423 2 19.709905 56.703008 69.998229
5424 5 19.350817 55.756658 70.000376
5425 2 9.802376 28.020205 73.094823
5426 2 10.544618 27.95207 71.660832
5427 5 10.667463 27.834268 72.658609
5428 2 19.133228 14.560926 66.0877
5429 2 19.590138 16.08913 66.347933
5430 5 19.265783 15.433972 65.64787
5431 2 24.599689 51.008851 67.436572
5432 2 24.507677 50.670552 65.858921
5433 5 24.057595 50.543109 66.756536
5434 2 16.110786 36.174426 76.174441
5435 2 16.668894 36.040443 74.66366
5436 5 16.470466 35.5331 75.516746
5437 2 32.931277 27.92755 73.799325
5438 2 32.713536 28.970624 75.014431
5439 5 32.656591 27.99681 74.744302
5440 2 16.723362 25.323361 66.123793
5441 2 16.930428 26.018873 64.679742
5442 5 16.785625 25.138 65.156842
5443 2 0.999387 34.860767 73.80663
5444 2 2.300261 35.415296 73.024249
5445 5 1.806299 34.580395 73.313157
5446 2 10.730483 25.252553 71.892791
5447 2 11.446407 24.810119 70.513081
5448 5 11.36245 24.604456 71.500593
5449 2 13.118739 18.809535 73.088898
5450 2 13.183351 20.424159 73.06222
5451 5 12.837873 19.605271 72.57787
5452 2 29.545188 59.902772 61.31631
5453 2 29.488739 60.009099 59.704663
5454 5 29.572853 60.539059 60.562914
5455 2 3.983259 12.564372 72.383406
5456 2 3.64611 12.634562 73.962424
5457 5 3.28401 12.3759 73.053301
5458 2 11.177453 20.696664 71.632827
5459 2 10.357016 20.581799 70.245172
5460 5 10.347952 20.9757 71.177527
5461 2 17.401702 44.91351 76.171336
5462 2 17.359036 43.749891 75.050592
5463 5 16.929093 44.090784 75.901161
5464 2 34.781474 54.781883 69.813653
5465 2 35.200548 56.11734 70.621631
5466 5 34.678501 55.762879 69.830207
5467 2 8.450466 14.032036 65.796658
5468 2 7.867765 15.407288 66.413939
5469 5 8.097873 14.92149 65.556281
5470 2 10.067773 23.27144 61.320142
5471 2 11.276882 22.294479 61.762294
5472 5 10.931275 23.245223 61.79649
5473 2 33.318079 29.832369 63.762814
5474 2 33.415162 30.557711 62.32186
5475 5 33.196259 30.695289 63.300472
5476 2 28.208577 19.7864 65.816366
5477 2 26.649049 19.903407 66.223892
5478 5 27.340667 19.319627 65.770689
5479 2 12.024017 16.804941 61.149216
5480 2 12.637763 15.98476 59.89921
5481 5 12.851522 16.398798 60.797768
5482 2 11.643384 5.016728 69.77719
5483 2 11.854606 4.911351 71.375995
5484 5 12.245499 5.273292 70.515339
5485 2 14.33727 47.829446 73.136231
5486 2 14.56086 49.429385 73.090423
5487 5 13.921704 48.679769 72.857867
5488 2 10.397481 4.596498 68.014399
5489 2 11.389163 4.805716 66.755555
5490 5 10.92331 5.271831 67.523829
5491 2 20.816546 48.256361 70.568547
5492 2 20.941109 48.63486 69.002303
5493 5 21.401383 48.688948 69.902165
5494 2 27.606049 4.159226 71.614223
5495 2 26.825839 3.453012 70.387671
5496 5 26.756584 4.156016 71.112596
5497 2 13.782207 37.146021 60.893336
5498 2 13.000296 37.390516 62.286438
5499 5 13.495862 36.706427 61.728797
5500 2 5.231883 1.968085 75.187575
5501 2 4.310984 3.174258 74.631708
5502 5 5.263591 2.861051 74.769439
5503 2 4.534681 37.637497 64.570409
5504 2 6.097784 37.876252 64.904477
5505 5 5.174648 38.289665 64.942364
5506 2 19.986928 31.686053 69.83344
5507 2 20.163361 32.809733 68.68535
5508 5 19.991916 31.827058 68.857057
5509 2 19.461158 9.138493 65.896076
5510 2 19.732963 9.123451 64.303031
5511 5 19.069936 8.880099 65.028085
5512 2 31.85124 6.61558 66.161995
5513 2 31.512636 6.475885 67.736075
5514 5 32.098723 6.946152 67.057932
5515 2 4.539142 33.20599 68.376777
5516 2 5.838409 32.786805 69.241697
5517 5 5.42068 32.766794 68.319943
5518 2 10.933429 33.227969 66.063719
5519 2 12.357675 32.67246 65.539478
5520 5 11.669197 33.4065 65.431262
5521 2 9.060787 6.545443 66.645717
5522 2 10.054213 7.32288 67.65596
5523 5 9.907604 7.04937 66.692516
5524 2 11.728353 31.035541 64.217122
5525 2 13.031413 30.162295 63.828056
5526 5 12.599571 30.718996 64.554777
5527 2 17.321889 5.713911 61.092465
5528 2 17.47472 6.230427 62.616194
5529 5 17.942365 5.74882 61.858638
5530 2 8.201059 39.523663 62.800764
5531 2 9.466741 39.994816 63.688436
5532 5 8.95893 39.192249 63.338376
5533 2 26.55466 33.812063 65.638679
5534 2 25.110281 33.215091 65.22723
5535 5 26.018671 33.490198 64.875561
5536 2 28.446029 7.069805 68.59522
5537 2 29.197009 5.830027 69.309977
5538 5 29.333345 6.67666 68.772247
5539 2 21.157056 58.993131 76.09562
5540 2 19.890273 57.99144 76.157047
5541 5 20.17458 58.962621 76.179526
5542 2 3.2459 13.184624 65.153369
5543 2 1.647532 13.421015 65.118228
5544 5 2.429765 13.004405 64.629274
5545 2 27.838864 53.948968 73.279282
5546 2 26.741205 53.588471 74.409364
5547 5 27.407853 54.284764 74.100685
5548 2 15.810096 56.57677 66.40612
5549 2 16.775804 57.830435 66.734188
5550 5 16.703285 56.956337 66.228995
5551 2 29.646643 25.417323 73.764444
5552 2 29.946439 25.257845 72.184385
5553 5 29.643436 24.771457 73.018737
5554 2 22.656842 5.303863 74.516644
5555 2 22.798511 5.983243 75.976187
5556 5 23.282897 5.781991 75.110512
5557 2 16.812681 20.40287 64.039067
5558 2 17.366065 19.684369 65.376758
5559 5 17.371337 19.657921 64.364928
5560 2 8.857585 6.905826 69.755282
5561 2 8.351172 8.110142 68.803932
5562 5 8.725635 7.882713 69.716391
5563 2 12.64482 5.936373 74.387386
5564 2 12.986861 6.123862 72.819027
5565 5 13.09091 5.510464 73.617428
5566 2 5.114656 3.762023 67.488366
5567 2 6.566806 3.248934 67.978159
5568 5 5.902829 4.011366 68.026737
5569 2 17.307128 4.998007 73.308654
5570 2 17.228359 3.386483 73.40184
5571 5 16.685335 4.240455 73.421437
5572 2 27.29358 46.972445 73.863159
5573 2 27.87982 48.400826 74.340595
5574 5 27.164062 47.705577 74.51044
5575 2 15.73341 18.260806 63.895632
5576 2 16.311215 18.243132 62.386419
5577 5 16.300958 17.750491 63.270572
5578 2 25.185959 3.656657 65.287957
5579 2 24.244337 4.014378 64.024122
5580 5 24.246699 3.751818 65.001662
5581 2 17.188713 26.14648 75.8875
5582 2 17.834299 24.692425 76.171822
5583 5 16.972576 25.223292 76.15997
5584 2 24.354743 43.186219 74.294431
5585 2 23.92976 43.104838 75.851564
5586 5 24.364569 42.601257 75.088757
5587 2 34.618201 51.132863 73.004701
5588 2 33.005156 51.193492 72.925283
5589 5 33.861997 51.648263 72.636259
5590 2 10.406588 35.022607 61.605241
5591 2 12.014646 35.101788 61.464619
5592 5 11.149431 35.608204 61.325077
5593 2 20.960535 47.099022 65.200021
5594 2 21.897043 46.894963 66.501254
5595 5 21.011044 47.257463 66.172429
5596 2 16.483917 43.001219 71.997769
5597 2 17.950446 43.250726 71.366157
5598 5 16.957936 43.244908 71.167617
5599 2 20.992331 31.512277 73.912953
5600 2 21.398717 31.848893 75.440512
5601 5 21.472603 32.160783 74.480412
5602 2 32.341796 20.694439 71.250788
5603 2 32.443399 20.212686 72.790102
5604 5 32.346997 19.897991 71.832918
5605 2 6.767432 4.527216 74.051853
5606 2 6.663616 5.526217 75.317994
5607 5 6.660145 5.474075 74.307155
5608 2 35.411939 35.45983 71.808287
5609 2 35.436857 36.401987 73.121152
5610 5 34.956133 36.214892 72.250275
5611 2 7.467847 35.546218 61.651277
5612 2 8.763672 36.39553 62.111061
5613 5 8.324103 35.484148 62.137286
5614 2 28.456704 40.950478 68.695629
5615 2 28.001915 41.607652 70.10033
5616 5 27.753885 41.492968 69.125725
5617 2 34.657878 56.809055 65.594186
5618 2 35.074376 57.355669 67.056937
5619 5 35.352244 56.752945 66.292711
5620 2 9.895279 36.397602 72.431212
5621 2 8.434817 36.174346 71.776152
5622 5 9.430022 36.17014 71.591553
5623 2 17.204552 42.493901 66.127073
5624 2 15.594361 42.372381 66.193498
5625 5 16.395344 42.896611 66.52234
5626 2 24.910049 16.964627 61.366112
5627 2 25.005311 18.57159 61.509257
5628 5 24.746095 17.71603 61.983967
5629 2 21.639446 54.467488 65.561473
5630 2 20.2422 55.082352 65.030869
5631 5 21.09305 54.61 64.752541
5632 2 2.368341 2.254293 75.100637
5633 2 1.38736 3.046017 76.111945
5634 5 1.651146 2.131764 75.766856
5635 2 13.58125 4.90819 59.888162
5636 2 12.817936 5.144259 58.483341
5637 5 13.545054 5.493442 59.094813
5638 2 13.614328 47.844721 63.630433
5639 2 13.328876 46.317355 64.074916
5640 5 13.445733 46.9369 63.283061
5641 2 29.180917 30.349935 61.622681
5642 2 29.621013 30.672359 60.101414
5643 5 29.925568 30.272946 60.980188
5644 2 18.16427 59.033574 65.435978
5645 2 17.899059 58.036303 64.192189
5646 5 17.629042 58.915043 64.615788
5647 2 33.976324 19.13273 76.172133
5648 2 33.260344 19.629469 74.811061
5649 5 33.319606 18.874554 75.482715
5650 2 3.74497 51.932566 70.503782
5651 2 5.32727 52.232228 70.368037
5652 5 4.481677 52.020488 69.85358
5653 2 28.50411 46.120592 70.16454
5654 2 28.080362 45.939549 71.71359
5655 5 28.772122 45.698647 71.015047
5656 2 29.621313 53.70831 76.177787
5657 2 28.140975 53.059893 76.170622
5658 5 28.71952 53.796917 75.787725
5659 2 18.689802 31.346253 63.242682
5660 2 18.695818 31.83976 64.781613
5661 5 18.188234 31.876165 63.90665
5662 2 15.661652 15.913734 74.213675
5663 2 16.044127 16.298166 75.736114
5664 5 15.658842 16.650994 74.869167
5665 2 8.449027 54.864886 75.294528
5666 2 9.140311 56.320274 75.420492
5667 5 8.929207 55.56053 74.785866
5668 2 30.25781 60.267128 67.812881
5669 2 30.577055 59.637333 69.266612
5670 5 30.956453 59.818817 68.345934
5671 2 4.598585 35.293713 76.17932
5672 2 4.582463 36.205531 74.84507
5673 5 4.884505 36.162751 75.810195
5674 2 29.346656 22.670932 64.7766
5675 2 28.691388 24.142901 64.902397
5676 5 28.753837 23.315621 64.322539
5677 2 23.554518 49.020637 72.408168
5678 2 25.030617 49.285139 73.010716
5679 5 24.081845 49.018869 73.241927
5680 2 1.827342 59.170159 65.314785
5681 2 0.997683 59.736798 66.580677
5682 5 0.997658 59.052039 65.835269
5683 2 32.712594 17.353934 61.197065
5684 2 33.203797 16.76366 59.775026
5685 5 32.764843 16.530217 60.656701
5686 2 8.17452 15.431611 63.392014
5687 2 6.710826 15.685107 64.028595
5688 5 7.387575 16.025531 63.35729
5689 2 12.217059 25.086492 61.773459
5690 2 12.050763 26.136047 60.555808
5691 5 12.605163 25.898061 61.368538
5692 2 23.137582 8.517943 69.28074
5693 2 24.648647 8.827229 69.763359
5694 5 23.807168 9.23602 69.376926
5695 2 20.13547 51.151841 68.452891
5696 2 21.377366 51.514121 67.48421
5697 5 20.567025 50.91819 67.597088
5698 2 1.000007 44.21947 60.342323
5699 2 1.191467 44.074624 61.940528
5700 5 1.612961 44.421938 61.088329
5701 2 20.98794 21.965142 64.349857
5702 2 19.744185 22.492639 65.236828
5703 5 20.517906 21.840669 65.20823
5704 2 10.431228 38.364523 73.493043
5705 2 11.909161 38.733933 74.032623
5706 5 10.921605 38.930926 74.134875
5707 2 2.134337 42.323732 60.571561
5708 2 1.020871 41.637434 61.520815
5709 5 1.214525 41.967319 60.583691
5710 2 8.426937 41.414894 74.326678
5711 2 9.260331 40.258304 73.565332
5712 5 8.351076 40.515715 73.927989
5713 2 34.092644 26.48902 75.453167
5714 2 35.413438 27.091592 74.743024
5715 5 34.963953 26.915436 75.632664
5716 2 30.168931 34.720802 72.166241
5717 2 29.291868 35.100181 70.862888
5718 5 29.25776 34.946387 71.862743
5719 2 12.127391 8.116799 73.391644
5720 2 13.209212 8.219406 72.195387
5721 5 12.26584 8.456059 72.475693
5722 2 18.733977 60.777342 67.907779
5723 2 18.435194 61.021245 66.338341
5724 5 19.101999 61.176163 67.083927
5725 2 32.175123 11.605981 63.270557
5726 2 31.179852 12.421828 62.292945
5727 5 31.25513 11.626918 62.915021
5728 2 28.345603 9.980833 62.792533
5729 2 26.784642 9.838781 62.398683
5730 5 27.667185 10.256108 62.131319
5731 2 23.644133 31.673833 59.910421
5732 2 24.451089 31.790672 61.305794
5733 5 23.651382 31.370583 60.849153
5734 2 23.334268 10.61392 59.444188
5735 2 22.334677 10.317994 60.679154
5736 5 23.279798 10.198238 60.337201
5737 2 31.565377 44.237281 63.884835
5738 2 31.326881 42.703673 64.33546
5739 5 30.874635 43.540887 63.990392
5740 2 26.611888 17.465341 58.872799
5741 2 25.066563 17.68283 59.292996
5742 5 26.008628 18.03531 59.406132
5743 2 28.215807 48.377655 62.752014
5744 2 28.107044 48.254821 61.144228
5745 5 28.611511 48.692349 61.904891
5746 2 33.32076 19.105888 69.945107
5747 2 32.165639 19.867956 69.110336
5748 5 32.35623 19.097198 69.738138
5749 2 23.591949 31.779986 75.363431
5750 2 23.299046 30.346351 74.677289
5751 5 24.003279 31.056301 74.833981
5752 2 31.550766 31.8972 62.471407
5753 2 30.441871 32.370035 61.39499
5754 5 30.581529 31.915272 62.288418
5755 2 29.999931 56.568727 66.889958
5756 2 29.851607 57.31195 65.462542
5757 5 29.848111 57.44636 66.465761
5758 2 10.419317 6.51542 71.825551
5759 2 10.068198 7.947193 72.487848
5760 5 10.06633 7.414956 71.626891
5761 2 26.074083 24.231609 65.36937
5762 2 26.676149 24.086545 66.862142
5763 5 26.768792 23.777578 65.902724
5764 2 21.155769 16.379757 63.408652
5765 2 22.348567 15.344993 63.752734
5766 5 22.132871 16.307022 63.5236
5767 2 17.151646 20.084684 67.897035
5768 2 18.220946 20.972359 68.721976
5769 5 17.362602 21.003902 68.18646
5770 2 3.014464 16.016961 68.132971
5771 2 3.057957 14.550437 68.810695
5772 5 2.790324 15.516194 68.952864
5773 2 22.989436 52.903277 71.618505
5774 2 23.952224 52.554791 70.368108
5775 5 23.877846 53.082315 71.228756
5776 2 25.66666 41.030447 75.913754
5777 2 27.019436 40.209642 75.58486
5778 5 26.171823 40.594316 75.187235
5779 2 23.305638 16.791598 75.653089
5780 2 22.653658 18.20774 75.227229
5781 5 22.640404 17.21009 75.056802
5782 2 15.623467 52.011018 65.916934
5783 2 16.390908 52.572865 64.610314
5784 5 15.485555 52.457006 65.047851
5785 2 30.76627 32.398503 72.772863
5786 2 31.639662 31.991623 74.070373
5787 5 31.687765 32.33452 73.11925
5788 2 7.598508 38.52008 73.388849
5789 2 7.893348 38.304462 71.814532
5790 5 8.320846 38.445823 72.721058
5791 2 24.574598 38.898483 62.365525
5792 2 23.66407 38.574747 63.660913
5793 5 23.947634 39.299131 63.013313
5794 2 20.508515 56.904985 74.352455
5795 2 20.367124 57.929737 73.110769
5796 5 19.853726 57.363101 73.773999
5797 2 18.53604 15.012374 61.01357
5798 2 19.196761 15.911933 59.844752
5799 5 18.802894 15.005625 60.063847
5800 2 25.679877 35.732602 73.830688
5801 2 26.224735 34.43208 73.04096
5802 5 25.400287 34.879975 73.420701
5803 2 31.746899 42.106115 66.409997
5804 2 32.558999 43.38453 66.973948
5805 5 31.642076 42.96567 66.882657
5806 2 4.504772 12.754718 63.402929
5807 2 4.599909 11.526174 64.448646
5808 5 4.775198 11.810275 63.493089
5809 2 24.1062 18.849394 67.812101
5810 2 22.810172 18.118608 68.443099
5811 5 23.330458 18.281706 67.590322
5812 2 26.023706 29.556321 60.410355
5813 2 26.936946 30.484457 61.367671
5814 5 26.005561 30.115573 61.222844
5815 2 15.76953 49.37294 62.727463
5816 2 16.233117 50.808992 63.306031
5817 5 16.344866 50.152905 62.54341
5818 2 3.637646 50.159275 68.827288
5819 2 4.708281 50.616883 67.70647
5820 5 4.200112 49.828685 68.087306
5821 2 34.629178 10.929314 71.184451
5822 2 34.773984 11.669328 69.755009
5823 5 35.284374 11.232545 70.512142
5824 2 33.79992 16.627711 73.091314
5825 2 35.40186 16.813501 73.196983
5826 5 34.593098 16.377919 73.622072
5827 2 18.112363 20.432657 58.311127
5828 2 17.675379 20.824225 59.816987
5829 5 17.340966 20.685312 58.871789
5830 2 25.726564 25.910616 70.041568
5831 2 25.697722 26.38235 68.496081
5832 5 26.15041 25.769088 69.162048
5833 2 27.560049 20.076249 59.259688
5834 2 27.959647 19.09782 58.037031
5835 5 28.312812 19.588744 58.848693
5836 2 15.340978 36.159853 69.09996
5837 2 16.666559 36.983967 68.680954
5838 5 15.662536 37.041463 68.795667
5839 2 1.992751 31.80477 67.455711
5840 2 0.999951 31.948635 66.18861
5841 5 1.398969 32.434261 66.982007
5842 2 26.481489 17.30427 66.059262
5843 2 26.562287 17.988089 67.521369
5844 5 25.982054 17.862093 66.701624
5845 2 18.533549 4.287241 75.570558
5846 2 18.72297 2.68437 75.487986
5847 5 18.664082 3.475803 76.116232
5848 2 33.022738 19.715576 63.72526
5849 2 33.911924 19.962071 62.398429
5850 5 33.848125 19.4377 63.261847
5851 2 18.243766 39.660314 59.472986
5852 2 18.570527 39.201908 60.987908
5853 5 18.854491 39.812927 60.232562
5854 2 19.09701 54.744594 63.184187
5855 2 17.93871 53.65633 62.891068
5856 5 18.650085 54.237332 62.465734
5857 2 25.726915 45.602932 68.224041
5858 2 24.820149 44.665164 67.269965
5859 5 25.447394 45.45935 67.288903
5860 2 14.537398 38.151963 67.266423
5861 2 14.624263 36.577269 66.913309
5862 5 14.192472 37.456365 66.657819
5863 2 16.371984 37.740675 63.890217
5864 2 15.089672 37.686579 62.908054
5865 5 15.385731 37.756628 63.87344
5866 2 13.40993 29.434926 71.47746
5867 2 13.904551 29.076186 69.981281
5868 5 13.310986 29.68654 70.528707
5869 2 1.000284 17.468926 67.44448
5870 2 2.258093 17.877967 66.515772
5871 5 1.734864 18.120271 67.347665
5872 2 14.309536 7.451558 75.907306
5873 2 14.084288 7.811625 74.347976
5874 5 14.410295 7.100907 74.990725
5875 2 8.738545 20.775955 60.713829
5876 2 10.094313 21.427038 60.122325
5877 5 9.656641 21.047115 60.952161
5878 2 21.099763 18.16182 59.66017
5879 2 20.444286 17.375938 60.911024
5880 5 20.923471 17.263009 60.026628
5881 2 35.362239 59.517077 63.717196
5882 2 35.241823 59.741015 65.313206
5883 5 35.077434 59.087187 64.558214
5884 2 8.022509 61.286723 72.235421
5885 2 7.59427 59.984089 73.090788
5886 5 7.294026 60.636924 72.377915
5887 2 32.580056 38.905623 63.265958
5888 2 32.872525 39.067787 61.684801
5889 5 32.204214 39.25226 62.422267
5890 2 2.244092 6.775316 64.066858
5891 2 2.096586 5.166023 64.049078
5892 5 2.373333 5.961903 64.609894
5893 2 29.509746 30.290813 69.085862
5894 2 30.68557 29.188978 69.209528
5895 5 30.049732 29.647068 68.568911
5896 2 27.918588 9.32373 64.849032
5897 2 27.140212 9.212823 66.261025
5898 5 27.864847 8.803062 65.685242
5899 2 9.715811 20.874532 64.569747
5900 2 10.43559 20.786542 63.125424
5901 5 9.819822 20.306733 63.769737
5902 2 26.266738 13.253338 63.781765
5903 2 25.624804 12.652857 65.13795
5904 5 25.425376 12.934634 64.186447
5905 2 3.039882 12.303841 67.156952
5906 2 2.276211 10.999382 66.585033
5907 5 2.219171 12.003483 66.699294
5908 2 14.986274 20.653101 74.298737
5909 2 15.957088 19.493479 74.868555
5910 5 15.919882 20.452269 74.546274
5911 2 6.551088 22.209595 69.404069
5912 2 7.717001 21.80273 70.446664
5913 5 7.268628 22.576716 69.972918
5914 2 25.78727 51.074856 61.702187
5915 2 26.681614 49.744976 61.910665
5916 5 25.742463 50.091034 61.759777
5917 2 6.27402 11.895899 66.169613
5918 2 6.372543 10.453766 65.446813
5919 5 6.598321 11.43654 65.359027
5920 2 18.207605 59.075979 73.483239
5921 2 17.613796 60.57752 73.551515
5922 5 17.913309 59.837438 72.929343
5923 2 30.711026 49.60699 61.014164
5924 2 31.671973 49.426406 62.300969
5925 5 30.884517 49.035487 61.799349
5926 2 6.877554 57.845425 63.557579
5927 2 6.47287 57.035858 64.896506
5928 5 6.752772 56.939858 63.928536
5929 2 24.873693 37.675459 67.5066
5930 2 24.276785 37.444825 68.99065
5931 5 25.127416 37.522252 68.447548
5932 2 16.099515 61.278792 61.025263
5933 2 16.490852 60.995792 62.567554
5934 5 16.852959 61.266597 61.661977
5935 2 19.165531 42.87908 67.046071
5936 2 19.220061 41.757397 68.208289
5937 5 19.244302 42.751847 68.02118
5938 2 32.745671 27.70083 67.54239
5939 2 33.129672 28.344583 68.974179
5940 5 32.469446 28.374981 68.207559
5941 2 12.828102 2.996115 63.661849
5942 2 12.900411 1.646598 64.548117
5943 5 13.314932 2.557994 64.399601
5944 2 7.893036 44.392506 60.565134
5945 2 8.154806 44.273461 62.15548
5946 5 7.457093 44.190916 61.426844
5947 2 8.814233 9.772845 71.800831
5948 2 8.130403 8.999896 73.044543
5949 5 8.688794 9.801257 72.778936
5950 2 28.12198 4.70828 62.667944
5951 2 27.845689 4.715961 61.075618
5952 5 27.627535 4.250358 61.947484
5953 2 16.61535 24.125077 69.080033
5954 2 17.110159 23.201466 70.310481
5955 5 17.328208 24.018042 69.753539
5956 2 20.685104 29.370349 73.540605
5957 2 21.021719 29.09392 75.096938
5958 5 21.424726 29.234411 74.179129
5959 2 13.443179 3.485701 70.037828
5960 2 12.24167 2.484496 69.630569
5961 5 12.585365 3.110124 70.348197
5962 2 17.381776 11.711825 74.793735
5963 2 16.953796 10.989129 76.174474
5964 5 17.490909 11.747613 75.773551
5965 2 28.125599 17.427864 64.519859
5966 2 29.274931 16.500517 65.176334
5967 5 28.279688 16.588016 65.013966
5968 2 20.13196 1.267488 72.955245
5969 2 19.009461 1.009883 74.089057
5970 5 20.003106 1.10091 73.919029
5971 2 5.063763 54.929013 69.265494
5972 2 3.863387 54.658763 70.313328
5973 5 4.600959 54.222207 69.774874
5974 2 9.991183 44.668066 59.473999
5975 2 10.002924 44.799152 61.084768
5976 5 10.072641 45.313385 60.215727
5977 2 34.905035 50.085498 64.635038
5978 2 35.434654 50.229334 66.15514
5979 5 35.387367 50.684921 65.252515
5980 2 27.763211 48.003657 71.021152
5981 2 28.277316 48.929212 72.242192
5982 5 27.747376 48.100741 72.00276
5983 2 9.222838 40.800194 70.412714
5984 2 8.21494 40.572123 71.655301
5985 5 8.643718 40.132379 70.850749
5986 2 30.701058 4.86201 74.665857
5987 2 30.182834 5.12074 76.17463
5988 5 29.906365 5.096685 75.201227
5989 2 25.719561 49.125902 67.627359
5990 2 25.995541 48.16206 68.894932
5991 5 25.84767 48.184734 67.893858
5992 2 31.950708 32.909288 64.730059
5993 2 32.533538 34.411678 64.607462
5994 5 32.253481 33.591354 64.084811
5995 2 19.159342 7.656944 59.8365
5996 2 17.580613 7.843573 59.545502
5997 5 18.261086 7.514511 60.218705
5998 2 27.314305 31.713965 66.646157
5999 2 27.743644 31.157557 68.101483
6000 5 28.090994 31.521387 67.223131
6001 2 30.799297 38.960378 73.025944
6002 2 31.403099 39.434072 74.448243
6003 5 30.553485 39.197845 73.951372
6004 2 16.520687 49.358683 70.565747
6005 2 16.478307 48.315041 69.332494
6006 5 16.760151 49.245097 69.615491
6007 2 18.390636 6.747594 74.063516
6008 2 18.021304 7.143761 75.586192
6009 5 17.639257 6.860261 74.692774
6010 2 27.087902 5.585421 67.705145
6011 2 26.782328 4.685357 66.398085
6012 5 26.993045 5.620253 66.723809
6013 2 4.286114 37.501894 58.804006
6014 2 3.449017 38.042774 60.076254
6015 5 3.375351 37.594832 59.171572
6016 2 6.66406 25.657624 60.761246
6017 2 7.704775 24.905859 61.742907
6018 5 7.577007 25.287547 60.814189
6019 2 32.835594 33.033156 60.600648
6020 2 31.773054 33.126371 59.386476
6021 5 32.00688 33.47977 60.305694
6022 2 29.997207 57.512391 75.822993
6023 2 29.921823 59.088569 76.172104
6024 5 30.281589 58.406072 75.516898
6025 2 5.271434 15.492493 66.583667
6026 2 3.97921 14.532883 66.729277
6027 5 4.558554 15.040763 66.072812
6028 2 19.350019 19.7018 74.507162
6029 2 18.249873 18.51809 74.486982
6030 5 18.453287 19.459289 74.17506
6031 2 9.416017 59.649429 74.786125
6032 2 8.264293 60.745745 75.07512
6033 5 8.918927 60.105247 75.506099
6034 2 22.267074 61.126967 74.945646
6035 2 23.232147 59.835385 74.834533
6036 5 22.500579 60.359584 74.371337
6037 2 21.750689 55.642145 72.868809
6038 2 21.308099 56.15628 71.40195
6039 5 20.98186 55.962993 72.340425
6040 2 33.59517 26.135834 71.158462
6041 2 34.838019 25.261046 71.707981
6042 5 34.532482 26.193786 71.460655
6043 2 10.102745 12.998422 64.775143
6044 2 11.635163 12.617662 64.430741
6045 5 10.675674 12.299365 64.379793
6046 2 33.758226 23.725923 72.853444
6047 2 32.937376 22.343687 73.019351
6048 5 32.993233 23.309579 73.316774
6049 2 18.491257 37.540355 75.224751
6050 2 18.01879 39.055563 74.92009
6051 5 18.153154 38.364954 75.64778
6052 2 6.642678 38.117073 68.37613
6053 2 6.996774 37.705357 69.8983
6054 5 7.347363 38.160835 69.06514
6055 2 14.428354 29.915281 76.076732
6056 2 14.367728 31.527435 76.172548
6057 5 13.81259 30.681106 76.163785
6058 2 20.885603 25.311786 72.053444
6059 2 20.119028 24.896165 70.692739
6060 5 20.03059 25.395824 71.568551
6061 2 17.146316 11.077321 69.51963
6062 2 18.33108 11.915653 68.808695
6063 5 18.029974 10.991014 69.089595
6064 2 35.414164 22.870935 74.022521
6065 2 34.228831 22.075147 74.779886
6066 5 34.806851 22.905839 74.799169
6067 2 2.404436 25.531699 59.634367
6068 2 2.626458 25.625854 58.036326
6069 5 2.315307 25.027512 58.79111
6070 2 6.4314 17.948363 72.198569
6071 2 5.254609 18.860858 71.570546
6072 5 6.048903 18.857718 72.197933
6073 2 11.926525 61.278856 74.558496
6074 2 11.860067 61.279553 76.173265
6075 5 12.459469 61.120152 75.373367
6076 2 32.295966 3.105134 60.539424
6077 2 32.698742 2.422966 61.948081
6078 5 33.00878 2.603649 61.001636
6079 2 21.377057 55.103369 75.265232
6080 2 20.421375 53.823873 75.513138
6081 5 21.030503 54.496501 75.961538
6082 2 8.340285 45.511203 63.963595
6083 2 9.356572 46.654236 64.485641
6084 5 8.803517 46.340726 63.698005
6085 2 6.738888 24.310863 71.218065
6086 2 8.013691 24.121741 72.19326
6087 5 7.140751 24.617812 72.06513
6088 2 22.786758 18.49414 62.651351
6089 2 21.200272 18.797852 62.703457
6090 5 21.90621 18.160422 62.357246
6091 2 5.882284 30.554662 72.258303
6092 2 4.806519 29.389738 72.570673
6093 5 4.916612 30.354811 72.285996
6094 2 15.91129 6.150616 58.052563
6095 2 17.179927 5.150374 58.096965
6096 5 16.782809 5.995329 58.48796
6097 2 25.451032 6.919343 70.5065
6098 2 23.995842 6.587973 69.88641
6099 5 24.989058 6.607904 69.692365
6100 2 33.037681 15.10673 70.416685
6101 2 32.901273 14.87855 72.010807
6102 5 32.482216 14.679657 71.111162
6103 2 6.232347 47.613011 73.179142
6104 2 5.553934 47.77691 71.721476
6105 5 5.67082 47.153802 72.510527
6106 2 34.668609 41.891968 60.824875
6107 2 33.965139 40.495407 60.416656
6108 5 34.849312 40.943857 60.620763
6109 2 13.391138 59.329776 62.482462
6110 2 11.786902 59.379204 62.293048
6111 5 12.591156 58.767451 62.351887
6112 2 16.029889 40.599562 60.249471
6113 2 15.28884 39.195685 60.552574
6114 5 16.104457 39.622886 60.132105
6115 2 24.919985 40.351433 72.062997
6116 2 25.16329 41.436695 73.235561
6117 5 25.525478 40.596718 72.802217
6118 2 31.832401 7.412238 61.931306
6119 2 32.769489 6.628951 60.8729
6120 5 32.719196 6.995988 61.814856
6121 2 23.238674 3.210127 74.8564
6122 2 23.649911 3.933375 76.24193
6123 5 24.008733 3.504799 75.398071
6124 2 4.232904 29.033625 70.476974
6125 2 4.991788 28.398187 69.199395
6126 5 5.048049 28.553008 70.19809
6127 2 24.320607 13.410835 75.419779
6128 2 23.722312 12.439095 74.275375
6129 5 24.363594 13.200913 74.456807
6130 2 31.576589 18.156949 74.34831
6131 2 30.730154 17.978234 75.713412
6132 5 30.743132 17.782605 74.720393
6133 2 16.039981 9.49964 68.461344
6134 2 15.601437 8.91294 69.901954
6135 5 16.141075 8.726793 69.066091
6136 2 21.508067 11.546398 62.704833
6137 2 23.094055 11.466526 62.404572
6138 5 22.319949 11.011356 62.871591
6139 2 8.682339 44.263818 66.958669
6140 2 9.019923 42.713031 66.653719
6141 5 8.754643 43.372187 67.374599
6142 2 11.502793 37.002554 75.807128
6143 2 10.918687 36.427803 74.414154
6144 5 10.751842 36.50112 75.409802
6145 2 6.772801 34.343094 65.684826
6146 2 8.031433 33.384054 65.356219
6147 5 7.621206 34.293196 65.183877
6148 2 2.838784 23.447372 72.211634
6149 2 1.416965 23.932225 71.615609
6150 5 2.317592 24.244907 71.95565
6151 2 26.162011 49.507655 70.956674
6152 2 24.601828 49.438562 70.540801
6153 5 25.389761 48.899041 70.87637
6154 2 32.204963 54.340132 63.761569
6155 2 32.401247 53.872059 65.295934
6156 5 32.651742 54.572774 64.609801
6157 2 13.809383 31.729732 61.69221
6158 2 14.560576 32.344734 60.400166
6159 5 13.760224 31.808128 60.710034
6160 2 27.829219 11.703389 64.062319
6161 2 29.29879 12.296434 63.745214
6162 5 28.614814 12.135552 64.473789
6163 2 24.172396 11.525975 66.355485
6164 2 23.653406 11.724216 64.83784
6165 5 23.510034 12.001964 65.800559
6166 2 32.658311 44.025054 72.954818
6167 2 32.048733 43.571572 74.381235
6168 5 32.399216 43.239068 73.49178
6169 2 5.557248 23.02679 74.648283
6170 2 4.957033 23.105727 73.149815
6171 5 5.158663 23.639565 73.985811
6172 2 0.997712 8.040643 72.834319
6173 2 2.079729 8.680707 73.849924
6174 5 1.099492 8.655761 73.598847
6175 2 20.665353 22.505904 62.242057
6176 2 20.067168 23.62681 63.240877
6177 5 19.868157 23.056175 62.428906
6178 2 27.105536 7.436269 72.965077
6179 2 26.741268 6.120912 72.099606
6180 5 27.024811 6.454189 73.012326
6181 2 32.61452 24.561949 68.245526
6182 2 32.857341 26.002689 68.936324
6183 5 32.841439 25.503155 68.056131
6184 2 3.49676 58.239514 58.801487
6185 2 3.868819 59.398167 59.864968
6186 5 3.329174 59.182963 59.036114
6187 2 15.564993 3.107976 59.101761
6188 2 15.949469 4.276473 60.149944
6189 5 15.519447 4.081521 59.254621
6190 2 32.588595 61.285589 69.374912
6191 2 31.9498 61.300102 70.859373
6192 5 32.300834 60.705564 70.11922
6193 2 5.38882 6.851405 60.402026
6194 2 5.577705 6.206378 61.871773
6195 5 5.999019 6.808837 61.176026
6196 2 4.048301 34.773039 69.840416
6197 2 3.787759 34.740458 71.435079
6198 5 4.068294 35.325012 70.657825
6199 2 1.597468 43.214592 71.34436
6200 2 0.99597 44.652694 71.770923
6201 5 1.431665 44.131574 71.020503
6202 2 8.42193 31.030542 61.869883
6203 2 7.004665 30.342075 62.229421
6204 5 7.541406 31.198635 62.281773
6205 2 12.395803 8.266849 64.985982
6206 2 12.043476 7.414393 66.313039
6207 5 12.718387 8.038931 65.889986
6208 2 11.18665 20.386202 68.215234
6209 2 11.968596 19.119483 68.844422
6210 5 11.525971 19.482927 68.009845
6211 2 23.466132 33.773171 61.345703
6212 2 21.860496 33.631024 61.228985
6213 5 22.697029 33.222988 61.626787
6214 2 32.402042 24.729084 65.827548
6215 2 33.007111 23.339105 66.387679
6216 5 33.22818 24.193832 65.892607
6217 2 5.773249 36.299362 63.33933
6218 2 5.347324 35.271075 62.167533
6219 5 5.013365 35.790291 62.969664
6220 2 27.716584 26.728275 70.486831
6221 2 28.395745 25.26849 70.627054
6222 5 28.283757 26.171216 71.070981
6223 2 17.845107 40.307591 63.61501
6224 2 17.674613 39.632549 65.073483
6225 5 17.350331 40.374294 64.465879
6226 2 9.582023 13.679678 62.700712
6227 2 9.662652 12.463652 61.639262
6228 5 9.046417 12.984002 62.250832
6229 2 20.032372 49.802928 61.155797
6230 2 19.8562 50.107394 62.733187
6231 5 19.361606 49.936722 61.866714
6232 2 30.384066 9.408516 64.532328
6233 2 31.188157 9.347572 63.13175
6234 5 30.376315 9.730206 63.599758
6235 2 34.484588 54.747563 76.187372
6236 2 35.02702 54.373247 74.71172
6237 5 35.237438 54.335305 75.701069
6238 2 24.339472 45.206199 70.414866
6239 2 25.721797 46.042516 70.455419
6240 5 25.299449 45.139815 70.632278
6241 2 14.14806 1.383281 60.174301
6242 2 14.869942 1.374572 61.620228
6243 5 14.776442 1.881328 60.749032
6244 2 17.268633 14.761151 68.180791
6245 2 16.991312 14.899036 69.766974
6246 5 16.816525 15.314722 68.860782
6247 2 19.073992 20.990899 63.775685
6248 2 18.611511 20.937363 62.228061
6249 5 18.510838 21.439393 63.101192
6250 2 18.227115 41.695611 61.182239
6251 2 18.187562 43.22844 60.671586
6252 5 18.76092 42.522597 61.116078
6253 2 24.417298 59.146464 72.595956
6254 2 25.80591 59.352983 73.396583
6255 5 24.822522 59.134528 73.495335
6256 2 25.963923 32.126758 74.195677
6257 2 25.445699 32.956793 75.481904
6258 5 25.475581 32.938746 74.470317
6259 2 5.456791 23.381144 60.402969
6260 2 6.546275 23.046317 61.548748
6261 5 5.818658 23.691008 61.266836
6262 2 26.986324 35.48314 69.061029
6263 2 27.710331 36.274884 67.852372
6264 5 26.833093 36.136607 68.338026
6265 2 28.551855 20.797601 62.984039
6266 2 29.29578 22.071316 62.323644
6267 5 29.378486 21.335231 63.013474
6268 2 12.526304 38.87978 67.781506
6269 2 12.705516 40.350835 68.426314
6270 5 13.054328 39.711096 67.723752
6271 2 21.874071 1.986925 59.810355
6272 2 22.071248 2.555016 61.310452
6273 5 22.373678 2.645526 60.34875
6274 2 4.940972 47.98516 69.041814
6275 2 3.417694 47.449396 69.108715
6276 5 4.136489 47.953981 69.611959
6277 2 10.214031 2.920147 62.985793
6278 2 10.996378 1.514137 63.137337
6279 5 10.615417 2.303757 63.6432
6280 2 7.751899 48.319345 64.110092
6281 2 7.37309 47.688369 65.548935
6282 5 7.22432 47.61169 64.550679
6283 2 29.118012 25.820062 66.439119
6284 2 28.429749 25.416017 67.844443
6285 5 28.748552 25.062176 66.951309
6286 2 30.381941 9.541741 74.889547
6287 2 30.572036 11.005769 75.547104
6288 5 30.058136 10.473032 74.856723
6289 2 15.774418 9.427327 62.832703
6290 2 14.201029 9.135215 63.058562
6291 5 14.873833 9.623092 62.480775
6292 2 19.139108 2.874568 64.936182
6293 2 20.215886 2.536053 63.779526
6294 5 19.661958 2.14317 64.530082
6295 2 13.169054 4.698621 68.226224
6296 2 13.384673 6.090372 67.433485
6297 5 13.492838 5.625152 68.325897
6298 2 4.742178 59.184279 69.137639
6299 2 4.269783 57.653345 69.349721
6300 5 4.020984 58.62174 69.507315
6301 2 3.879873 18.969945 68.696733
6302 2 3.437311 19.251729 70.225338
6303 5 3.107309 19.186684 69.270668
6304 2 5.119628 32.177225 62.200768
6305 2 5.994295 31.878442 60.875029
6306 5 5.517402 32.598796 61.402466
6307 2 15.757459 58.152789 73.084866
6308 2 14.197437 58.571075 73.027737
6309 5 14.845062 57.795248 72.971167
6310 2 2.394051 26.353471 64.471708
6311 2 2.398932 26.395513 62.856126
6312 5 2.699971 26.877396 63.693796
6313 2 24.060494 9.823245 75.748322
6314 2 24.717641 11.294896 75.867897
6315 5 24.742271 10.349709 76.229204
6316 2 12.562744 2.171539 74.925494
6317 2 13.182489 0.989116 74.014622
6318 5 12.923218 1.967412 74.03016
6319 2 11.860411 27.159012 66.80696
6320 2 12.404492 28.506699 66.100127
6321 5 12.224831 27.519895 65.964231
6322 2 31.168121 26.903197 76.083487
6323 2 30.289228 27.347812 74.802175
6324 5 30.515619 26.577835 75.418948
6325 2 34.863184 14.532085 68.488233
6326 2 35.117995 13.846009 69.929159
6327 5 35.427382 14.572993 69.296465
6328 2 4.647514 48.525065 60.00441
6329 2 4.724398 47.383889 61.146207
6330 5 4.994911 48.329417 60.906778
6331 2 23.62567 41.303532 61.532221
6332 2 23.878697 41.105202 59.948384
6333 5 24.324704 41.136339 60.856478
6334 2 11.555696 52.893828 69.979564
6335 2 12.432752 53.030371 68.628999
6336 5 12.398394 52.612869 69.550432
6337 2 7.417908 26.114289 64.85344
6338 2 6.844227 26.143346 63.34283
6339 5 6.839812 26.621048 64.235191
6340 2 28.413719 57.259354 62.366269
6341 2 28.031343 56.705078 60.897099
6342 5 28.380448 56.444741 61.810815
6343 2 29.751487 13.01646 75.202779
6344 2 29.663824 12.478706 73.681256
6345 5 29.202848 12.480426 74.58238
6346 2 32.472926 13.332689 64.60087
6347 2 33.438101 13.796016 65.811514
6348 5 32.505923 13.479765 65.575811
6349 2 22.859176 32.156176 68.73722
6350 2 22.769989 33.721253 68.344186
6351 5 23.385673 32.987938 68.672377
6352 2 23.320681 53.039066 64.043617
6353 2 23.996495 52.049066 62.95961
6354 5 23.793808 53.016353 63.178246
6355 2 24.520633 15.333366 73.943001
6356 2 24.044468 16.252209 72.701674
6357 5 23.87036 16.024102 73.672335
6358 2 5.115631 4.964296 70.663043
6359 2 5.699253 4.640143 72.134847
6360 5 5.946902 4.790251 71.164968
6361 2 0.985004 35.136562 64.618801
6362 2 2.329202 34.68767 65.395669
6363 5 1.317564 34.681601 65.42852
6364 2 15.588062 22.412848 75.910568
6365 2 14.062444 22.875004 76.176646
6366 5 14.655006 22.092955 75.928057
6367 2 32.476222 48.271799 69.363175
6368 2 32.297231 47.277037 68.102101
6369 5 31.89239 48.062306 68.596048
6370 2 21.324891 52.403775 73.863454
6371 2 22.698391 52.332369 74.712157
6372 5 21.695398 52.203324 74.755516
6373 2 30.792407 29.424161 72.898324
6374 2 32.339322 29.705057 72.524096
6375 5 31.584574 29.03379 72.45865
6376 2 14.322903 18.589928 68.575698
6377 2 15.903161 18.293636 68.739686
6378 5 15.14508 18.376273 68.074094
6379 2 10.770351 18.72492 72.515337
6380 2 10.755627 19.253164 74.042634
6381 5 10.315066 19.342234 73.135716
6382 2 0.999196 45.984987 63.014802
6383 2 1.664126 46.581449 61.667955
6384 5 1.857511 46.118915 62.547268
6385 2 24.829504 49.501758 75.252328
6386 2 23.299365 49.480714 75.772068
6387 5 24.135321 48.923533 75.648555
6388 2 18.018384 26.030712 72.181039
6389 2 18.629895 27.369664 72.84824
6390 5 18.363442 26.931764 71.975443
6391 2 17.122199 46.531957 66.225059
6392 2 17.557418 46.783658 67.761004
6393 5 17.504781 47.201341 66.840516
6394 2 11.061979 14.252245 67.771807
6395 2 10.660509 12.943965 66.912087
6396 5 10.860256 13.289148 67.842397
6397 2 2.23128 52.983079 72.064716
6398 2 2.404507 51.981739 73.32138
6399 5 2.899593 52.50279 72.608693
6400 2 17.834077 3.769254 68.424714
6401 2 17.6615 3.713892 66.818773
6402 5 17.87128 4.316344 67.604629
6403 2 17.886887 42.466993 64.035672
6404 2 19.416238 42.865735 63.698053
6405 5 18.605595 42.356746 63.368938
6406 2 11.724511 5.748451 61.835594
6407 2 11.78363 6.248816 63.371183
6408 5 11.188768 6.154362 62.557707
6409 2 20.408888 47.991999 62.496937
6410 2 20.717237 47.724278 60.933242
6411 5 21.11411 47.716813 61.86435
6412 2 10.28919 30.292874 60.976149
6413 2 10.383395 31.100203 59.57928
6414 5 10.922077 30.657722 60.313147
6415 2 17.700054 54.924045 68.802309
6416 2 16.219899 55.40719 68.369173
6417 5 16.834962 55.240374 69.155555
6418 2 6.234158 61.150404 68.610885
6419 2 5.398507 60.848488 67.260911
6420 5 5.358098 61.27925 68.175973
6421 2 15.896054 30.791348 70.558906
6422 2 15.62761 30.952048 72.144469
6423 5 15.354602 30.449469 71.309359
6424 2 18.687981 0.999563 66.127341
6425 2 19.022656 1.432474 67.648024
6426 5 18.649013 1.752594 66.763467
6427 2 28.560103 38.398563 73.458786
6428 2 28.638787 38.835886 75.012637
6429 5 28.100728 38.919486 74.159389
6430 2 22.137057 5.345421 70.190677
6431 2 21.683466 4.840276 71.657299
6432 5 21.377085 5.31785 70.819099
6433 2 12.875784 35.455113 66.199514
6434 2 12.735638 36.499511 64.974162
6435 5 12.896491 35.5299 65.216046
6436 2 6.831158 45.21931 76.171561
6437 2 7.676947 46.545497 75.800391
6438 5 6.797818 46.205268 76.169042
6439 2 6.058967 25.569039 69.548373
6440 2 5.960914 24.774609 68.144392
6441 5 6.050377 24.667915 69.146959
6442 2 25.762399 51.267839 58.695269
6443 2 24.635405 51.02156 59.827137
6444 5 25.054366 51.713185 59.218324
6445 2 20.050032 49.035425 64.687671
6446 2 19.973325 49.259688 66.286332
6447 5 19.562022 48.768778 65.502519
6448 2 18.430642 18.383503 61.820831
6449 2 18.537574 18.852295 60.277881
6450 5 18.042608 18.993351 61.149454
6451 2 23.631475 49.044167 68.615314
6452 2 22.935084 48.702766 67.197435
6453 5 22.841993 49.232887 68.054659
6454 2 18.109977 44.634696 63.642027
6455 2 18.246348 44.929818 65.225125
6456 5 17.678107 45.090342 64.403017
6457 2 7.591471 41.222838 61.548659
6458 2 6.380071 42.292599 61.544248
6459 5 7.163472 41.937162 62.077611
6460 2 32.948184 4.128711 76.171688
6461 2 33.115568 3.424004 74.72695
6462 5 32.543276 3.468488 75.560635
6463 2 24.597355 31.415975 66.893714
6464 2 23.871029 29.973893 66.824812
6465 5 24.343518 30.685263 66.281457
6466 2 14.693672 9.903162 74.708377
6467 2 15.958414 8.96342 74.348921
6468 5 15.650839 9.756762 74.897132
6469 2 22.162053 52.931342 69.148109
6470 2 21.398384 53.668694 67.929496
6471 5 21.896486 53.81477 68.798451
6472 2 4.485974 33.210998 72.848655
6473 2 5.048784 32.940223 71.358077
6474 5 4.962975 32.553062 72.289351
6475 2 27.796753 15.185718 62.385188
6476 2 28.263503 14.283205 63.641974
6477 5 28.194931 15.228539 63.286772
6478 2 1.484849 30.439346 60.049083
6479 2 2.334442 29.289778 60.803125
6480 5 1.401706 29.602796 60.565321
6481 2 15.277906 41.41583 70.583604
6482 2 15.230694 40.588083 69.19634
6483 5 14.862756 41.392096 69.689
6484 2 7.008919 34.274058 68.114398
6485 2 8.426398 34.255466 67.338316
6486 5 7.971951 34.460665 68.219167
6487 2 30.329963 13.918319 68.474173
6488 2 28.73043 14.133515 68.39004
6489 5 29.62787 14.50485 68.105017
6490 2 28.499616 42.994447 65.416802
6491 2 27.259599 43.229567 64.407361
6492 5 28.244342 43.408376 64.558473
6493 2 24.018637 46.968295 68.007824
6494 2 22.62521 46.304341 68.486806
6495 5 23.632959 46.212997 68.511816
6496 2 12.129049 14.648424 65.116875
6497 2 12.845151 15.1292 66.483604
6498 5 12.079796 15.310554 65.846525
6499 2 15.378856 43.262187 64.171863
6500 2 15.451254 44.442343 65.273627
6501 5 14.827247 43.848554 64.742066
6502 2 16.457727 58.954294 61.326978
6503 2 14.954976 59.403031 60.936758
6504 5 15.771539 58.89526 60.620655
6505 2 22.067552 50.752213 69.428069
6506 2 22.575716 50.266568 70.883341
6507 5 22.864518 50.677891 70.004743
6508 2 23.705654 40.046405 74.079591
6509 2 22.994497 41.429412 73.639768
6510 5 23.161569 40.467525 73.372583
6511 2 5.459416 20.270301 76.203457
6512 2 4.553596 21.608373 76.172679
6513 5 5.421319 21.193376 75.857463
6514 2 4.309222 53.634885 61.42888
6515 2 5.051856 53.464375 60.003638
6516 5 4.894252 53.03599 60.907061
6517 2 7.229331 46.857829 59.301709
6518 2 6.197278 45.923078 60.122076
6519 5 6.52655 46.871593 59.993908
6520 2 10.263951 10.939421 60.172309
6521 2 10.48416 11.725646 58.777585
6522 5 10.938943 11.169557 59.490653
6523 2 22.990398 44.853219 74.616495
6524 2 22.897386 45.273171 76.174341
6525 5 22.441356 45.34334 75.273431
6526 2 3.755349 43.069609 65.778307
6527 2 3.481346 41.645516 65.065021
6528 5 3.070526 42.53834 65.307137
6529 2 12.960445 44.488538 62.909491
6530 2 13.709327 44.194494 61.507846
6531 5 13.056588 43.823848 62.186875
6532 2 34.364578 51.387205 62.031054
6533 2 35.413935 52.502546 62.547542
6534 5 35.314247 51.540221 62.250019
6535 2 23.532115 40.598512 76.201133
6536 2 21.95767 40.95944 76.253578
6537 5 22.84244 41.192527 75.820705
6538 2 28.862782 3.842534 67.558796
6539 2 27.459459 3.494957 68.281132
6540 5 28.062699 3.268332 67.500574
6541 2 29.682543 15.917535 73.857641
6542 2 29.430942 15.559563 72.301862
6543 5 29.016417 15.557505 73.225275
6544 2 19.940401 36.705264 66.338953
6545 2 19.123475 36.7683 64.945915
6546 5 19.569689 37.323262 65.665245
6547 2 7.931189 49.809979 65.71713
6548 2 7.555616 49.266863 67.192212
6549 5 8.310874 49.589427 66.600548
6550 2 9.129769 10.875184 63.566448
6551 2 10.138069 9.72631 63.041746
6552 5 9.941162 10.719059 63.02747
6553 2 14.814743 25.461224 60.210012
6554 2 14.074068 26.890138 60.06338
6555 5 14.648348 26.318133 60.669631
6556 2 28.509598 52.611593 63.975154
6557 2 30.077306 52.411385 64.312944
6558 5 29.138033 52.328415 64.680923
6559 2 22.680033 11.097553 69.074178
6560 2 22.179354 11.083283 67.53762
6561 5 22.917634 11.385008 68.160862
6562 2 21.925914 48.486538 73.74733
6563 2 20.454921 49.152077 73.818978
6564 5 21.213273 48.89404 73.200232
6565 2 34.040489 46.637497 61.408614
6566 2 35.419264 45.912407 60.978358
6567 5 34.419772 45.941552 60.821215
6568 2 5.701239 49.107951 62.936677
6569 2 4.562359 49.06969 64.082707
6570 5 5.511509 48.801692 63.855066
6571 2 31.854647 12.635579 73.981601
6572 2 31.476844 14.126841 73.486323
6573 5 31.681208 13.554517 74.295772
6574 2 32.674518 48.049924 74.767214
6575 2 31.449404 48.5771 73.854482
6576 5 32.149256 47.852887 73.955729
6577 2 19.196547 33.455861 75.761221
6578 2 18.828374 32.730764 74.36459
6579 5 18.470811 33.31814 75.107332
6580 2 19.562434 12.233919 67.01453
6581 2 20.407127 11.094234 66.240252
6582 5 19.661202 11.258546 66.904425
6583 2 31.252866 6.963581 75.628848
6584 2 32.713703 7.391051 76.172096
6585 5 31.759824 7.703018 76.040499
6586 2 23.954912 26.788755 71.002308
6587 2 23.049368 25.531414 70.542981
6588 5 23.755479 25.84263 71.198023
6589 2 30.301336 28.126597 60.677558
6590 2 28.980585 28.435671 59.798931
6591 5 29.382227 27.818885 60.49376
6592 2 22.305568 57.876558 61.211722
6593 2 21.715365 57.483706 62.664039
6594 5 22.3273 57.185155 61.915086
6595 2 24.97715 53.156002 68.212274
6596 2 26.541899 52.759184 68.289681
6597 5 25.749336 52.868661 67.669692
6598 2 32.0608 56.594473 76.161348
6599 2 32.092131 56.163123 74.604154
6600 5 32.160454 56.9442 75.244293
6601 2 19.49762 55.003712 73.903528
6602 2 18.018024 55.615856 74.122554
6603 5 18.698977 55.334841 73.428392
6604 2 34.086618 38.12536 72.910058
6605 2 33.504659 38.814604 74.251013
6606 5 33.319873 38.628698 73.273353
6607 2 6.934168 45.468961 73.988573
6608 2 5.518453 44.806129 74.398817
6609 5 5.992163 45.677062 74.194853
6610 2 34.018135 35.361235 74.441433
6611 2 32.49958 35.144407 73.932637
6612 5 33.084535 35.642373 74.591716
6613 2 19.715119 6.284646 65.813017
6614 2 18.499114 6.43777 66.866479
6615 5 19.115625 5.777354 66.410088
6616 2 19.468948 29.166056 67.127516
6617 2 18.309956 28.33191 67.884375
6618 5 18.87111 28.385802 67.043703
6619 2 10.453463 9.22988 69.969628
6620 2 10.022628 9.526909 68.44056
6621 5 10.776927 9.212487 69.037803
6622 2 28.430269 17.907084 71.681325
6623 2 29.597301 17.83582 72.797055
6624 5 28.714168 18.267035 72.554862
6625 2 33.816342 26.511147 66.00902
6626 2 35.408638 26.252362 66.106582
6627 5 34.499783 25.915862 66.398604
6628 2 29.055744 54.177693 71.462078
6629 2 27.54278 54.697834 71.233409
6630 5 28.336784 54.252719 70.790737
6631 2 25.662923 29.669243 76.007113
6632 2 25.518147 29.520573 74.404355
6633 5 25.182569 29.181209 75.296962
6634 2 15.974726 38.01382 72.212331
6635 2 16.458878 38.032773 73.754127
6636 5 15.82791 38.452979 73.083431
6637 2 27.942496 16.883459 76.205473
6638 2 27.63112 17.596717 74.789068
6639 5 28.222908 16.924376 75.260525
6640 2 6.992792 9.134466 70.728058
6641 2 6.521212 10.127007 71.913119
6642 5 6.755821 10.070547 70.930114
6643 2 21.14302 9.544595 69.302144
6644 2 21.095039 8.763664 67.888023
6645 5 20.795011 9.595546 68.380447
6646 2 23.733265 22.139987 70.969049
6647 2 23.201524 22.294058 72.487406
6648 5 23.11951 21.751719 71.636719
6649 2 13.742002 49.603543 70.139247
6650 2 14.189913 48.531503 69.015859
6651 5 13.421158 49.094315 69.357597
6652 2 8.226239 40.3752 66.273355
6653 2 8.603925 38.835492 65.959432
6654 5 8.868897 39.79863 65.796084
6655 2 18.54553 9.94371 74.060803
6656 2 18.802547 9.914728 75.656108
6657 5 18.946464 9.412615 74.789103
6658 2 1.68513 39.574798 71.600085
6659 2 2.107643 41.12392 71.783385
6660 5 2.135501 40.331129 71.154709
6661 2 3.671048 39.103033 66.506018
6662 2 2.317353 39.355106 65.659931
6663 5 3.324706 39.277383 65.59889
6664 2 23.787037 35.514788 76.178266
6665 2 23.613204 35.71857 74.584481
6666 5 23.780177 35.03784 75.314724
6667 2 32.715213 5.479688 74.052018
6668 2 32.546712 7.074728 73.853643
6669 5 33.207834 6.334414 74.05209
6670 2 31.849949 58.560712 66.327012
6671 2 31.238965 59.593504 65.244452
6672 5 31.541389 59.489738 66.204817
6673 2 22.372125 60.761049 59.298748
6674 2 23.29047 61.216956 58.049474
6675 5 23.24994 60.625087 58.86958
6676 2 24.560972 26.87039 73.115354
6677 2 23.699047 28.078297 73.755621
6678 5 24.592012 27.828105 73.349979
6679 2 34.397858 56.480237 74.705068
6680 2 34.915856 56.904883 76.175867
6681 5 34.351189 57.192115 75.386451
6682 2 2.064447 46.717723 67.554076
6683 2 1.668638 46.974691 66.008373
6684 5 1.30303 46.875705 66.947021
6685 2 32.922432 37.455522 71.159044
6686 2 32.322346 36.820204 72.518516
6687 5 32.869982 36.625602 71.689811
6688 2 34.237273 17.795324 64.672864
6689 2 35.273383 18.482558 65.705376
6690 5 34.294113 18.354115 65.483884
6691 2 11.732238 38.424244 65.331245
6692 2 11.037486 39.882386 65.386354
6693 5 10.964339 38.948844 65.002067
6694 2 5.717445 7.488884 69.206583
6695 2 6.711999 6.483405 69.98874
6696 5 6.486153 6.882371 69.086328
6697 2 6.092183 19.55904 61.122565
6698 2 6.903622 19.974511 62.457048
6699 5 6.470266 19.205164 61.962241
6700 2 29.195547 9.079092 72.989885
6701 2 27.934587 9.85881 72.346523
6702 5 28.610061 9.865375 73.100325
6703 2 20.039824 24.773549 68.49823
6704 2 19.294874 25.525622 67.277029
6705 5 19.909708 24.75929 67.520428
6706 2 32.589643 21.633311 67.871017
6707 2 33.209446 22.238564 69.235352
6708 5 32.371289 22.165244 68.67264
6709 2 15.343403 50.257757 68.272267
6710 2 16.012837 50.043732 66.816951
6711 5 15.762865 49.585759 67.684304
6712 2 6.710626 58.404438 68.541097
6713 2 6.707281 57.873518 67.01466
6714 5 6.20937 57.851834 67.89565
6715 2 20.361703 11.941112 69.654236
6716 2 19.56203 10.968603 70.66747
6717 5 20.476073 11.321265 70.413143
6718 2 1.086672 53.754612 75.44227
6719 2 1.199331 53.787588 73.830403
6720 5 0.991218 54.339062 74.653259
6721 2 27.819165 45.927822 75.728962
6722 2 26.332826 45.479801 76.178369
6723 5 27.304943 45.199174 76.150718
6724 2 11.655368 57.744847 72.81778
6725 2 10.714441 56.434693 72.717548
6726 5 10.928235 57.255228 73.270307
6727 2 25.489611 32.693573 58.905415
6728 2 26.273376 32.633808 60.317519
6729 5 26.012766 33.233071 59.544541
6730 2 33.15124 32.77126 75.462728
6731 2 34.709565 33.109884 75.20033
6732 5 33.771299 33.211935 74.834585
6733 2 32.476015 54.543654 69.307521
6734 2 31.658977 53.152054 69.395808
6735 5 32.410604 53.693519 69.80373
6736 2 14.505596 25.118331 65.331201
6737 2 13.612114 25.880625 66.441379
6738 5 13.810252 24.982941 66.017785
6739 2 12.593005 43.975002 65.329178
6740 2 13.240856 44.890516 66.492802
6741 5 12.697056 44.905738 65.639235
6742 2 16.282997 28.498275 65.529019
6743 2 14.979174 27.666756 65.998611
6744 5 15.705576 27.732833 65.296826
6745 2 24.040094 30.199259 69.006608
6746 2 24.475256 30.750946 70.462002
6747 5 24.662952 30.808709 69.469046
6748 2 9.918545 54.772993 71.515043
6749 2 9.599691 54.34016 69.990942
6750 5 9.187406 54.633531 70.867573
6751 2 35.380136 31.09751 63.442304
6752 2 35.431128 31.639643 64.963944
6753 5 34.971809 31.741923 64.06779
6754 2 29.127534 1.408456 66.328845
6755 2 30.126113 1.070927 67.55392
6756 5 29.932193 1.72343 66.804813
6757 2 24.72705 26.009825 65.670833
6758 2 24.175943 27.310498 66.455961
6759 5 24.587367 26.392662 66.569251
6760 2 6.937221 29.176311 66.269368
6761 2 7.120098 29.143229 64.663953
6762 5 7.593289 29.30511 65.54396
6763 2 26.765307 56.555735 72.405879
6764 2 27.453091 57.497159 73.525061
6765 5 26.678045 57.417001 72.878993
6766 2 12.253952 46.204291 69.080319
6767 2 12.716637 45.709983 70.547792
6768 5 13.031331 46.132302 69.683419
6769 2 8.983121 37.187631 67.36512
6770 2 7.62319 36.561065 66.756927
6771 5 8.151782 36.714456 67.606391
6772 2 30.100983 41.328865 74.288103
6773 2 30.868208 41.630791 72.898102
6774 5 30.592816 42.023576 73.789397
6775 2 30.15371 22.597116 70.183876
6776 2 29.196394 23.137855 71.368378
6777 5 29.641956 23.381872 70.492902
6778 2 7.206362 53.128273 63.857348
6779 2 5.907405 52.981067 62.907118
6780 5 6.856905 53.328221 62.95672
6781 2 9.242601 42.44304 60.758951
6782 2 8.868633 41.231061 59.757377
6783 5 9.556409 41.94303 59.968543
6784 2 15.496287 58.48429 76.10956
6785 2 14.397222 57.371341 75.702994
6786 5 14.837553 58.237048 75.418061
6787 2 10.335776 22.428238 69.010716
6788 2 9.625076 22.895868 70.384806
6789 5 10.202906 23.199567 69.611239
6790 2 32.472901 10.916408 59.456461
6791 2 32.042838 10.851773 61.012984
6792 5 31.74257 11.125379 60.085888
6793 2 12.051166 45.650081 58.085255
6794 2 13.271427 45.785421 59.136228
6795 5 12.973845 45.354008 58.270286
6796 2 34.763993 35.681692 64.562605
6797 2 35.400379 34.208331 64.372564
6798 5 35.412185 35.161217 64.031395
6799 2 9.865822 15.800186 76.202254
6800 2 10.896247 15.337693 75.046304
6801 5 10.690159 16.058834 75.726018
6802 2 12.385347 35.449797 68.353287
6803 2 12.668425 36.920469 68.960646
6804 5 12.408971 36.409556 68.126273
6805 2 31.628139 40.417798 68.439762
6806 2 30.328363 40.78458 67.552097
6807 5 30.668792 40.64116 68.49447
6808 2 21.841483 52.280995 65.47787
6809 2 20.88597 50.991917 65.285084
6810 5 21.064814 51.938705 64.975026
6811 2 5.48713 19.936795 74.030003
6812 2 7.035349 20.073347 74.473023
6813 5 6.344598 20.362677 73.792084
6814 2 18.040713 29.259042 64.108115
6815 2 19.423599 29.76394 64.774898
6816 5 18.699959 29.057283 64.813748
6817 2 10.25821 48.607165 66.876139
6818 2 10.154789 49.039263 68.430002
6819 5 10.315961 49.377505 67.489713
6820 2 5.285936 21.115119 63.412712
6821 2 6.503863 22.073029 63.872013
6822 5 5.560456 21.777966 64.089841
6823 2 18.901483 51.626376 65.989033
6824 2 18.660245 51.114549 64.475185
6825 5 18.204549 51.350328 65.347697
6826 2 13.739089 56.105869 68.464272
6827 2 13.408118 54.74432 67.658953
6828 5 13.960894 55.592208 67.651754
6829 2 6.639266 27.849289 58.76742
6830 2 7.711737 26.695777 59.129512
6831 5 6.815444 26.88116 58.697287
6832 2 12.174556 41.911316 73.323228
6833 2 11.150595 42.973688 72.66386
6834 5 12.080772 42.852921 73.044273
6835 2 10.189725 21.882734 66.829918
6836 2 10.989032 22.951301 65.918234
6837 5 10.853172 21.965724 66.104535
6838 2 7.181796 24.457253 74.258403
6839 2 8.476343 23.7421 74.910018
6840 5 7.658012 23.596453 74.332395
6841 2 30.681095 26.571317 68.70642
6842 2 30.347007 25.251749 69.577639
6843 5 30.711868 25.585345 68.694397
6844 2 16.111074 46.547693 59.685473
6845 2 17.154884 45.344768 59.959936
6846 5 16.175111 45.598533 59.946675
6847 2 2.44146 21.754501 61.649879
6848 2 3.664374 20.7029 61.752413
6849 5 3.417467 21.684249 61.775201
6850 2 1.611321 49.348339 73.03189
6851 2 1.829553 49.409992 74.632037
6852 5 1.53988 49.938751 73.818999
6853 2 4.224031 30.43452 74.458395
6854 2 3.426104 31.748399 74.957324
6855 5 4.344166 31.350854 74.803549
6856 2 9.224775 17.453405 73.427637
6857 2 8.549392 16.682475 74.677205
6858 5 9.379378 16.749956 74.101795
6859 2 13.648851 41.686914 66.956153
6860 2 13.584262 42.011869 65.374342
6861 5 13.05377 42.004701 66.236348
6862 2 32.460558 34.469005 71.834917
6863 2 32.715784 34.693941 70.254993
6864 5 33.081219 34.264887 71.095765
6865 2 22.839639 20.26025 65.623768
6866 2 22.322334 20.237454 64.09283
6867 5 22.806693 20.78774 64.790762
6868 2 23.622496 56.755471 70.992141
6869 2 23.279658 55.196708 71.246335
6870 5 23.983076 55.915204 71.362498
6871 2 33.397781 13.756368 75.673932
6872 2 33.751666 14.377215 74.224377
6873 5 34.073377 13.754997 74.955044
6874 2 15.981925 34.052617 60.767316
6875 2 15.637171 34.685121 59.320603
6876 5 16.227251 34.771995 60.138396
6877 2 35.427337 45.044242 72.566316
6878 2 34.583036 44.840053 73.929166
6879 5 34.933464 45.525396 73.271873
6880 2 15.961105 31.142246 74.70505
6881 2 16.623051 32.196039 73.673913
6882 5 16.769737 31.680344 74.53244
6883 2 34.562467 47.744854 73.679968
6884 2 34.95964 48.099568 72.154082
6885 5 34.349919 48.342707 72.92457
6886 2 35.010715 1.011647 73.003917
6887 2 35.431103 1.802234 74.349333
6888 5 34.864661 1.049639 73.978831
6889 2 22.650711 56.391533 66.864932
6890 2 24.08336 56.100048 66.17613
6891 5 23.588388 56.695848 66.827706
6892 2 10.733336 50.857927 69.721553
6893 2 11.261278 51.218164 68.237167
6894 5 11.459444 50.687306 69.075885
6895 2 19.688455 41.358944 71.926171
6896 2 20.211408 41.36972 70.397021
6897 5 19.550368 41.779756 71.04465
6898 2 14.890667 44.487966 71.451756
6899 2 14.77137 45.814529 72.367122
6900 5 14.256283 45.040489 71.967029
6901 2 27.120113 16.615821 72.887479
6902 2 26.584187 15.126946 73.216006
6903 5 26.624655 16.080883 73.552004
6904 2 16.783039 60.532869 69.641609
6905 2 17.235029 59.323771 68.669148
6906 5 16.681818 59.564645 69.481837
6907 2 30.25603 27.405441 71.754971
6908 2 31.424119 27.737387 70.688539
6909 5 30.930714 26.993075 71.165067
6910 2 35.121094 8.948802 67.348799
6911 2 34.578782 7.567139 66.709426
6912 5 34.915907 8.006508 67.556673
6913 2 28.199074 12.686659 61.879713
6914 2 26.659303 12.195957 61.894373
6915 5 27.266248 13.003012 61.825045
6916 2 28.141847 51.967237 61.904013
6917 2 29.408943 51.008133 62.198094
6918 5 28.462764 51.03659 61.839677
6919 2 1.660294 37.332477 73.892829
6920 2 1.196887 37.9077 75.33028
6921 5 0.997789 37.912348 74.337876
6922 2 22.047789 58.384567 71.125444
6923 2 22.171824 59.069054 72.584206
6924 5 22.416793 58.257273 72.031459
6925 2 16.376649 28.015197 72.177607
6926 2 17.16735 28.970947 73.213575
6927 5 16.542355 28.957653 72.417503
6928 2 30.452397 40.36094 70.665668
6929 2 31.257889 38.968603 70.822112
6930 5 31.229029 39.940056 71.104907
6931 2 12.422804 56.743063 66.579789
6932 2 10.958241 56.674763 67.259707
6933 5 11.808659 56.155768 67.080929
6934 2 16.193504 42.587882 61.345232
6935 2 15.544747 43.05401 59.940335
6936 5 15.994486 43.377008 60.787645
6937 2 12.537084 19.75766 64.792609
6938 2 11.70074 18.375802 64.73881
6939 5 12.107632 19.069225 65.353733
6940 2 1.032956 15.186331 63.193641
6941 2 0.999621 13.593081 62.92468
6942 5 1.600326 14.381955 63.128048
6943 2 27.863295 4.63516 74.535975
6944 2 27.727996 3.961807 75.998912
6945 5 28.105779 3.840396 75.067748
6946 2 4.277055 27.861368 59.458468
6947 2 3.39632 28.605986 58.326327
6948 5 3.969524 28.746079 59.148725
6949 2 8.008032 34.491228 73.124562
6950 2 9.219268 35.058869 74.031527
6951 5 8.213575 35.03919 73.918741
6952 2 14.204451 13.094603 68.649633
6953 2 13.162031 14.321113 68.504972
6954 5 13.267867 13.316991 68.433801
6955 2 22.546818 23.388953 63.519293
6956 2 23.907745 23.287149 64.384978
6957 5 22.970385 22.920697 64.277289
6958 2 1.614547 58.942943 69.699022
6959 2 1.520218 57.761472 68.600329
6960 5 0.988262 58.32755 69.249256
6961 2 21.665065 43.113077 74.470889
6962 2 21.572149 43.474616 76.043324
6963 5 21.27086 42.824868 75.328075
6964 2 2.445073 40.152466 60.745651
6965 2 1.943157 39.825902 59.244541
6966 5 1.669413 39.845844 60.218806
6967 2 3.480857 45.370645 73.792027
6968 2 3.426309 45.915118 72.271346
6969 5 4.036124 45.720276 73.055368
6970 2 19.934055 15.611677 73.901841
6971 2 21.004711 16.435317 73.014594
6972 5 20.30258 15.706611 72.991672
6973 2 20.931034 9.269611 73.85272
6974 2 22.109552 9.187392 74.955548
6975 5 21.151666 9.471163 74.792895
6976 2 28.586603 41.318397 63.964172
6977 2 27.97052 40.189978 64.943461
6978 5 27.809916 41.100793 64.532183
6979 2 2.820182 60.752321 67.277124
6980 2 2.858777 59.164676 67.576772
6981 5 3.393157 60.023485 67.61436
6982 2 31.379337 52.801599 66.973712
6983 2 30.505747 54.127298 66.671625
6984 5 31.13434 53.687536 67.331933
6985 2 2.656861 54.114193 65.311086
6986 2 1.063594 54.279739 65.525544
6987 5 1.918154 53.92689 65.937553
6988 2 30.801618 55.27674 70.70087
6989 2 31.037694 54.758967 72.213508
6990 5 31.431644 55.307282 71.459398
6991 2 6.638939 8.933247 75.668704
6992 2 7.89891 9.889889 75.338243
6993 5 7.312402 9.526195 76.078691
6994 2 35.414179 22.028535 67.440428
6995 2 35.3573 22.613264 68.946002
6996 5 34.977492 22.703584 68.012131
6997 2 28.136416 45.274531 67.774193
6998 2 27.389021 44.508309 66.563325
6999 5 27.616224 45.416533 66.948078
7000 2 8.502158 21.130436 58.037518
7001 2 7.666399 19.747326 58.057755
7002 5 8.094585 20.459796 58.635311
7003 2 11.744566 43.624026 60.43348
7004 2 12.434846 43.345839 58.9989
7005 5 11.950726 42.916737 59.777377
7006 2 4.080037 2.834951 65.363339
7007 2 4.090257 1.731665 64.182428
7008 5 3.502126 2.235768 64.833972
7009 2 8.327354 17.495062 66.93275
7010 2 7.483944 16.764564 68.101907
7011 5 8.391738 17.133579 67.8484
7012 2 24.144783 51.114092 72.169484
7013 2 22.737296 50.986102 72.953382
7014 5 23.681051 51.347824 73.008264
7015 2 32.937057 4.573928 64.339101
7016 2 32.977649 6.102458 63.815799
7017 5 33.464506 5.407139 64.367186
7018 2 32.842473 44.807429 70.233044
7019 2 33.526838 45.463879 71.541713
7020 5 33.595648 44.715627 70.863545
7021 2 33.643105 20.592858 65.643022
7022 2 33.24328 21.883103 64.755721
7023 5 32.965862 21.302301 65.536897
7024 2 9.157854 30.353223 67.745668
7025 2 9.736677 31.751769 67.179164
7026 5 9.527419 30.790233 66.942129
7027 2 24.282749 52.393622 76.223474
7028 2 25.893202 52.441009 76.096625
7029 5 25.047762 52.039963 75.710725
7030 2 13.000158 43.476846 70.96035
7031 2 13.937571 42.55707 71.902245
7032 5 13.482528 42.617213 71.00011
7033 2 3.554501 37.374608 72.77505
7034 2 5.080466 36.842901 72.799821
7035 5 4.148565 36.656556 72.451446
7036 2 21.161464 27.400399 72.685426
7037 2 22.211426 26.478481 73.497549
7038 5 22.083711 27.050376 72.672228
7039 2 24.510446 15.292124 64.380369
7040 2 24.552996 16.344301 65.606341
7041 5 24.056726 15.55285 65.216664
7042 2 2.487427 40.82569 75.006919
7043 2 3.0471 40.289807 73.588649
7044 5 3.091288 40.164978 74.592139
7045 2 1.533703 24.271541 66.948139
7046 2 2.787939 23.304067 67.268733
7047 5 2.316915 24.158785 67.537287
7048 2 15.471334 2.071562 73.423704
7049 2 16.066537 0.99561 72.374916
7050 5 16.07147 1.2928 73.342481
7051 2 30.973226 30.779882 71.175561
7052 2 29.524407 31.495643 71.198005
7053 5 30.415238 31.453453 70.719292
7054 2 31.585413 45.265893 67.566545
7055 2 31.018367 45.326647 66.054374
7056 5 31.008633 45.784563 66.957007
7057 2 20.167797 25.422315 61.822355
7058 2 20.389675 24.585043 60.457935
7059 5 19.712003 24.848026 61.162299
7060 2 22.899767 16.351411 60.346343
7061 2 23.248908 15.565015 61.714399
7062 5 23.355397 15.55459 60.707881
7063 2 25.728374 29.828764 58.037143
7064 2 24.150922 30.180247 58.037104
7065 5 24.886233 29.691863 58.532408
7066 2 13.563736 31.300325 74.068959
7067 2 14.245589 32.403259 73.10433
7068 5 13.988204 32.190817 74.059918
7069 2 20.700856 55.727896 68.263931
7070 2 19.283875 55.886709 67.503116
7071 5 20.264293 55.666499 67.381393
7072 2 5.589174 42.234316 64.896754
7073 2 6.493925 43.478865 64.402366
7074 5 5.546201 43.13822 64.503891
7075 2 33.38159 33.739857 66.529431
7076 2 33.587513 32.222396 66.012899
7077 5 33.858227 33.186606 65.866135
7078 2 7.799569 55.282614 64.943225
7079 2 6.868882 55.357365 66.262364
7080 5 6.966609 54.939751 65.345535
7081 2 17.400557 40.49392 67.078331
7082 2 17.031701 39.5624 68.346445
7083 5 17.671781 39.683888 67.571805
7084 2 18.193613 22.97368 61.004081
7085 2 18.338784 22.879255 59.39725
7086 5 17.749069 23.202645 60.153677
7087 2 30.219276 33.570132 74.645822
7088 2 29.862013 33.186844 76.174661
7089 5 29.969502 32.820946 75.237061
7090 2 10.494629 22.796141 72.403463
7091 2 10.399783 23.347833 73.919555
7092 5 9.936593 23.327133 73.019803
7093 2 29.539271 47.809495 64.78926
7094 2 30.028278 49.011163 63.825537
7095 5 29.708066 48.780961 64.757738
7096 2 6.30926 8.663918 64.170888
7097 2 6.017545 8.572575 62.583924
7098 5 6.656849 8.924708 63.285223
7099 2 23.855323 20.021965 70.38898
7100 2 23.947709 18.423177 70.606322
7101 5 24.186457 19.185319 69.984497
7102 2 7.315046 22.327876 76.130019
7103 2 8.717742 21.581379 75.834921
7104 5 7.743196 21.441151 76.069705
7105 2 32.688226 51.291434 66.05318
7106 2 33.735579 51.178925 67.278858
7107 5 33.626114 51.455547 66.311375
7108 2 22.944837 43.213837 71.011427
7109 2 21.886988 42.762533 72.146846
7110 5 22.849836 42.691441 71.842877
7111 2 23.71231 27.746457 64.350367
7112 2 23.152064 27.416454 62.8708
7113 5 22.948977 27.889867 63.7421
7114 2 20.440237 17.845382 74.96282
7115 2 20.775351 18.912734 76.129162
7116 5 20.365905 18.00808 75.932992
7117 2 33.192793 57.222731 73.021327
7118 2 33.255363 56.529645 71.562693
7119 5 33.607415 57.2913 72.128792
7120 2 30.515383 3.574482 64.480951
7121 2 30.42063 4.057793 66.020213
7122 5 29.949394 3.54132 65.288285
7123 2 8.309569 46.305773 68.096344
7124 2 9.007437 46.814804 66.730415
7125 5 8.560054 47.113234 67.58792
7126 2 4.786628 30.682195 68.622326
7127 2 5.515269 30.772521 70.062055
7128 5 5.633093 30.49891 69.094697
7129 2 14.17989 18.678011 61.327836
7130 2 13.009524 18.408363 62.409238
7131 5 13.816714 18.004816 61.950848
7132 2 21.413977 61.145561 71.884468
7133 2 22.141173 61.278885 70.447351
7134 5 21.695609 60.634962 71.088727
7135 2 7.867314 43.555073 75.070656
7136 2 8.988063 44.627663 74.61748
7137 5 8.726844 43.65 74.595863
7138 2 18.863397 36.193667 61.420877
7139 2 19.426952 34.690524 61.234162
7140 5 18.616338 35.240945 61.488067
7141 2 0.995484 21.005374 74.558492
7142 2 1.46374 21.263525 76.083612
7143 5 1.262647 21.708393 75.196943
7144 2 3.207109 10.424782 74.576324
7145 2 3.369233 10.377317 76.183607
7146 5 3.534082 10.934723 75.354964
7147 2 10.712171 54.946922 65.599131
7148 2 11.549271 53.986305 66.593302
7149 5 11.045344 54.02579 65.716361
7150 2 35.414982 38.333847 63.797274
7151 2 34.482393 37.855572 62.567061
7152 5 34.912814 37.565382 63.436
7153 2 28.904236 21.661913 67.529955
7154 2 27.524833 21.861576 66.711861
7155 5 28.531933 21.8051 66.62767
7156 2 16.108085 48.760706 76.174465
7157 2 15.793097 48.020738 74.772636
7158 5 16.376095 48.712742 75.226255
7159 2 11.627841 59.190019 64.478963
7160 2 10.351287 59.394189 65.448819
7161 5 11.162867 58.817802 65.265401
7162 2 8.747623 57.010948 66.236369
7163 2 8.911578 57.843176 64.860719
7164 5 8.543384 57.873375 65.803082
7165 2 30.275027 19.915067 72.570098
7166 2 29.444051 21.262133 72.896884
7167 5 29.498518 20.454703 72.288923
7168 2 2.612868 61.289044 70.899796
7169 2 3.517796 60.949484 69.604536
7170 5 2.586147 60.893858 69.996278
7171 2 25.19062 61.291741 72.580627
7172 2 24.130287 61.114548 71.3739
7173 5 25.09946 61.000293 71.642555
7174 2 12.97627 10.353495 73.409446
7175 2 13.135935 10.376992 71.801388
7176 5 13.565431 10.650712 72.676109
7177 2 13.916218 1.342518 70.485009
7178 2 15.082923 2.356369 70.957029
7179 5 14.260343 1.849296 71.258304
7180 2 6.66021 13.557404 64.602217
7181 2 7.919088 12.672372 64.108415
7182 5 7.330262 13.464528 63.884139
7183 2 19.885665 4.806387 64.195628
7184 2 18.935044 4.171108 63.053421
7185 5 18.992415 4.871424 63.781978
7186 2 5.123218 54.77547 64.157279
7187 2 5.140571 55.282462 62.622823
7188 5 4.734715 55.437045 63.537105
7189 2 10.066263 29.999335 63.215731
7190 2 8.801604 28.993469 63.243419
7191 5 9.161708 29.874059 63.588981
7192 2 13.148308 58.673685 58.475929
7193 2 12.347821 59.365577 59.697569
7194 5 12.245259 58.86073 58.826284
7195 2 16.539595 2.508679 75.296644
7196 2 15.897427 3.626922 76.270834
7197 5 16.496452 3.479175 75.468421
7198 2 15.071517 22.697588 68.406
7199 2 15.229939 22.122083 69.907863
7200 5 14.583445 22.535618 69.247892
7201 2 12.88275 25.171961 74.496523
7202 2 12.308357 23.900659 75.312464
7203 5 13.083502 24.242256 74.758398
7204 2 14.11917 23.982722 61.715213
7205 2 13.443227 22.54369 62.005355
7206 5 14.320756 23.04428 61.943073
7207 2 7.619615 30.109614 76.17179
7208 2 6.995278 31.322036 75.304534
7209 5 7.824227 30.992984 75.783173
7210 2 11.258593 58.814382 67.694134
7211 2 11.909934 59.560767 68.971068
7212 5 11.067177 59.45356 68.420799
7213 2 1.628369 56.554042 75.488424
7214 2 1.435765 57.019921 73.952926
7215 5 0.999772 56.536965 74.72829
7216 2 26.59865 55.052085 61.150511
7217 2 25.200177 54.328662 60.786053
7218 5 26.086884 54.215951 61.261
7219 2 16.949674 1.000184 64.779433
7220 2 16.557096 1.917429 63.508041
7221 5 17.27967 1.717577 64.188095
7222 2 35.414317 2.544814 65.58512
7223 2 34.368379 1.929333 66.652402
7224 5 34.570424 2.726724 66.062596
7225 2 33.255304 23.909484 62.08892
7226 2 32.873773 22.974172 60.827365
7227 5 33.639319 23.382936 61.348306
7228 2 27.670092 55.237927 65.568025
7229 2 26.277655 55.972894 65.203554
7230 5 26.704732 55.084738 65.434447
7231 2 15.051268 13.140693 64.155578
7232 2 14.171786 13.797811 65.341581
7233 5 14.974007 13.215755 65.136204
7234 2 7.9307 23.08849 65.244773
7235 2 9.06644 23.996334 65.95033
7236 5 8.27593 24.009706 65.318316
7237 2 5.435857 51.704659 65.93638
7238 2 4.838097 52.695829 64.808479
7239 5 5.180887 52.641066 65.75928
7240 2 13.521518 40.508794 76.170668
7241 2 12.291716 40.603669 75.126406
7242 5 12.630892 40.909033 76.029867
7243 2 29.005197 17.417053 62.504146
7244 2 30.316921 16.872253 63.275164
7245 5 29.987827 17.493466 62.546935
7246 2 11.013278 14.594232 70.273559
7247 2 9.890824 14.644759 71.435213
7248 5 10.513942 14.038029 70.917401
7249 2 30.159164 10.307396 66.567652
7250 2 28.649663 10.812867 66.288728
7251 5 29.253114 10.348662 66.955726
7252 2 14.843782 22.115468 66.296606
7253 2 13.875655 22.538719 65.073706
7254 5 14.460532 22.890316 65.821253
7255 2 14.87057 38.891587 75.033458
7256 2 15.970053 39.208059 76.174895
7257 5 15.487003 38.470184 75.678176
7258 2 1.000885 27.026667 58.619735
7259 2 0.999466 28.604399 58.269513
7260 5 1.4103 27.709103 58.036732
7261 2 14.168891 33.904911 70.106443
7262 2 13.809105 34.06797 71.673562
7263 5 13.75521 33.446946 70.876097
7264 2 12.650474 47.083554 66.448601
7265 2 12.322663 48.233107 67.536242
7266 5 12.02884 47.335607 67.171976
7267 2 8.264043 50.2254 61.116282
7268 2 7.187868 49.173296 60.527369
7269 5 7.2989 50.069851 60.983865
7270 2 26.327872 47.76369 59.870755
7271 2 27.625966 48.132989 58.981673
7272 5 26.639528 47.908929 58.946089
7273 2 1.939121 56.145446 66.291203
7274 2 1.593696 57.002626 64.965375
7275 5 2.093796 57.011769 65.845343
7276 2 28.358501 27.066066 73.079066
7277 2 26.842481 27.615519 72.970994
7278 5 27.782967 27.845083 73.266482
7279 2 24.384392 47.617653 65.933407
7280 2 25.928824 47.142245 65.958189
7281 5 24.991657 46.883974 65.676159
7282 2 9.636508 17.145685 71.298002
7283 2 10.862013 16.554551 72.170123
7284 5 10.532583 16.738529 71.230892
7285 2 8.497047 32.364274 74.080897
7286 2 7.282006 32.36682 73.015268
7287 5 8.225965 32.044778 73.187775
7288 2 30.697433 20.677645 66.693448
7289 2 31.379884 19.250694 67.02506
7290 5 31.364093 20.024813 66.373126
7291 2 32.217301 44.964963 60.270139
7292 2 31.904684 44.309985 61.714151
7293 5 32.483782 44.976996 61.219915
7294 2 30.982671 47.028417 76.134915
7295 2 30.164589 47.030958 74.741132
7296 5 30.785912 46.491771 75.330846
7297 2 29.342833 29.304288 71.122153
7298 2 27.821939 28.779396 71.274688
7299 5 28.415864 29.598927 71.286917
7300 2 16.601902 23.272734 72.449492
7301 2 16.068328 22.503699 73.766982
7302 5 16.689989 22.439811 72.970751
7303 2 25.803482 54.570682 72.625924
7304 2 26.224481 53.128302 72.03078
7305 5 25.529787 53.624264 72.574793
7306 2 24.360432 39.583634 68.471499
7307 2 24.015741 39.665406 70.04833
7308 5 24.743327 39.792818 69.356296
7309 2 10.803162 27.746994 75.40986
7310 2 12.295458 27.138655 75.287909
7311 5 11.68447 27.888536 74.989749
7312 2 8.243368 4.303837 67.027594
7313 2 8.279218 4.840894 68.551464
7314 5 7.870134 4.98415 67.636775
7315 2 8.550533 10.475719 65.650685
7316 2 9.437143 11.087685 66.855391
7317 5 8.618505 11.233798 66.278321
7318 2 15.520621 24.515378 63.46789
7319 2 14.906887 25.919229 62.953665
7320 5 15.606443 25.210352 62.772996
7321 2 2.180953 54.805992 63.278272
7322 2 2.94953 55.846291 62.309271
7323 5 2.041256 55.541737 62.636093
7324 2 23.435088 54.385064 74.96786
7325 2 24.948777 54.843047 74.634853
7326 5 24.340479 54.045745 74.772003
7327 2 17.11801 40.906307 71.774858
7328 2 16.575388 39.666456 70.891553
7329 5 16.555272 40.096685 71.807537
7330 2 5.495269 31.259949 58.822298
7331 2 5.665524 29.775462 58.206501
7332 5 6.024594 30.430198 58.889815
7333 2 1.567292 8.949301 66.219085
7334 2 0.998935 7.521577 65.718617
7335 5 1.804692 7.998875 66.102633
7336 2 21.034912 15.89099 75.779597
7337 2 22.268107 14.923584 76.173618
7338 5 21.262046 15.030309 76.204884
7339 2 13.660202 56.23284 64.210305
7340 2 13.365169 57.783653 64.556471
7341 5 12.944679 56.869493 64.4468
7342 2 15.256121 31.626117 63.951925
7343 2 16.197731 30.658499 64.84017
7344 5 15.291006 31.105459 64.78914
7345 2 25.215022 36.634405 59.866053
7346 2 25.69909 36.564633 61.406412
7347 5 25.731385 37.113637 60.55666
7348 2 10.607217 45.535276 65.92931
7349 2 10.88274 45.483464 67.520943
7350 5 10.763324 44.922774 66.686741
7351 2 34.57458 15.093982 62.058008
7352 2 34.534264 16.532366 62.793753
7353 5 34.602897 15.53328 62.940871
7354 2 14.761992 27.462736 68.452698
7355 2 14.572166 26.981525 69.983807
7356 5 15.129794 26.86615 69.146987
7357 2 30.025606 21.099239 59.862677
7358 2 30.999971 21.825926 60.927776
7359 5 30.225623 21.965147 60.290963
7360 2 28.749142 13.181607 66.404371
7361 2 30.174614 12.540466 65.99344
7362 5 29.562301 12.758726 66.769303
7363 2 25.763906 5.207702 75.517846
7364 2 26.610893 6.539041 75.168497
7365 5 26.50336 5.780986 75.830551
7366 2 4.061654 34.606708 66.748789
7367 2 4.278743 35.699291 65.57788
7368 5 4.74626 35.03606 66.182925
7369 2 17.355002 51.815919 68.689106
7370 2 17.232016 52.313516 70.221805
7371 5 16.708983 52.068763 69.390505
7372 2 20.746089 1.675388 70.46261
7373 2 21.364987 2.590105 71.642506
7374 5 21.526019 2.225582 70.712066
7375 2 20.342162 20.415777 71.967662
7376 2 20.354064 21.389914 70.678161
7377 5 20.934313 20.856201 71.312976
7378 2 26.611006 7.646429 62.342699
7379 2 27.202269 6.773855 63.567818
7380 5 27.304264 6.987209 62.583641
7381 2 26.209254 28.162851 69.772279
7382 2 25.478784 28.876267 71.025015
7383 5 25.749548 28.988266 70.056165
7384 2 10.847922 31.530324 76.192733
7385 2 9.723819 32.649625 75.883778
7386 5 9.918123 31.656269 75.888031
7387 2 14.208955 46.407518 67.846184
7388 2 15.455257 47.408692 67.608952
7389 5 14.723898 46.880364 67.150137
7390 2 21.358232 55.020779 62.481774
7391 2 21.717408 53.449016 62.593343
7392 5 21.907169 54.303497 62.085032
7393 2 14.404787 39.246175 71.028182
7394 2 13.756 38.824654 69.609277
7395 5 13.556736 39.205105 70.525835
7396 2 11.5086 45.969822 62.177826
7397 2 10.743206 44.931805 63.151781
7398 5 10.775409 45.892036 62.833273
7399 2 28.763101 27.597914 64.38306
7400 2 29.306363 28.078199 62.938731
7401 5 28.720405 28.331082 63.724371
7402 2 8.930059 2.029401 65.493253
7403 2 8.366496 2.936527 64.280233
7404 5 8.374657 2.817791 65.285401
7405 2 14.393401 47.000322 61.222059
7406 2 15.878764 47.440129 61.682668
7407 5 14.954417 47.779589 61.448412
7408 2 6.388435 46.243473 67.025697
7409 2 7.035758 45.274081 65.906257
7410 5 6.513986 45.298092 66.773266
7411 2 6.425464 7.78432 72.369528
7412 2 7.335371 6.45075 72.444074
7413 5 7.198828 7.329037 71.959825
7414 2 35.414064 9.411937 63.81024
7415 2 34.741635 9.565833 65.271764
7416 5 34.603194 9.718942 64.280846
7417 2 32.842113 41.095445 73.708145
7418 2 33.069991 40.556868 72.201526
7419 5 33.370063 41.238365 72.887125
7420 2 20.159482 22.601214 68.840624
7421 2 20.671333 22.121897 67.384548
7422 5 20.851997 22.753374 68.154694
7423 2 26.52557 19.694744 74.308908
7424 2 27.481879 20.29624 73.153239
7425 5 27.265671 19.470042 73.696543
7426 2 24.192079 20.55778 58.958533
7427 2 24.248627 20.40868 60.566783
7428 5 24.652241 20.089776 59.695047
7429 2 27.920569 57.924127 64.605206
7430 2 28.744562 59.191064 65.177746
7431 5 27.843984 58.880244 64.835873
7432 2 7.909277 8.236985 65.654144
7433 2 7.148676 8.673436 67.011675
7434 5 8.055183 8.538207 66.582157
7435 2 7.896834 1.132733 76.185965
7436 2 9.166323 0.967107 75.199628
7437 5 8.743034 1.555605 75.906044
7438 2 17.959634 9.005037 62.949145
7439 2 19.120321 7.956975 62.541384
7440 5 18.191545 8.287949 62.312565
7441 2 2.557567 30.081679 68.701511
7442 2 2.426019 28.483197 68.900118
7443 5 3.014163 29.222746 68.537241
7444 2 2.253638 50.995971 67.337474
7445 2 1.189004 51.235246 68.529613
7446 5 1.379884 51.401884 67.549652
7447 2 3.366895 33.292488 64.051226
7448 2 4.891723 33.802302 64.215192
7449 5 4.000221 33.997597 63.777457
7450 2 22.353286 58.681073 66.542086
7451 2 22.820208 58.34052 65.032813
7452 5 22.231835 58.939745 65.597856
7453 2 29.470797 14.161779 70.484495
7454 2 30.201893 13.549158 71.789136
7455 5 30.287191 13.701207 70.792074
7456 2 8.176225 24.377128 67.925014
7457 2 8.207803 25.144741 69.346868
7458 5 8.231863 24.236888 68.899933
7459 2 29.020682 9.064382 69.323003
7460 2 29.460978 9.595666 70.784431
7461 5 28.673491 9.432881 70.169701
7462 2 5.604127 56.94803 61.252606
7463 2 7.151683 57.078719 60.805522
7464 5 6.530857 56.925084 61.590059
7465 2 27.285512 11.10048 70.528853
7466 2 28.642294 11.760287 71.108242
7467 5 28.116854 11.562083 70.266129
7468 2 11.690802 32.415562 74.36334
7469 2 12.593563 32.807835 75.645152
7470 5 11.865316 33.130337 75.02051
7471 2 6.593155 51.366001 68.794186
7472 2 7.806022 51.404006 67.726757
7473 5 6.815342 51.231676 67.84244
7474 2 28.907597 54.014056 62.154931
7475 2 30.42327 53.541756 62.457523
7476 5 29.849019 54.160425 61.898943
7477 2 17.850077 21.211348 70.910995
7478 2 18.283415 21.014946 72.455515
7479 5 18.291847 21.656397 71.672574
7480 2 24.655586 45.280613 60.569302
7481 2 24.700855 43.706309 60.93181
7482 5 24.415703 44.383681 60.235835
7483 2 35.415793 24.847869 68.088569
7484 2 35.413559 25.44015 69.592263
7485 5 34.835357 25.044781 68.861583
7486 2 13.463464 60.383584 64.693004
7487 2 14.356519 61.27945 65.698873
7488 5 13.550279 61.283875 65.086921
7489 2 4.762276 2.681769 69.37261
7490 2 5.076376 2.780968 70.954823
7491 5 5.490907 2.772666 70.031447
7492 2 29.549047 56.606269 69.052421
7493 2 30.050173 55.148379 68.567319
7494 5 29.34228 55.642625 69.095651
7495 2 34.394 18.542014 71.786818
7496 2 34.731091 18.904648 73.325247
7497 5 34.403705 19.278289 72.443352
7498 2 10.342969 43.78749 69.865518
7499 2 9.097732 44.587315 69.216241
7500 5 9.796553 44.604688 69.948276
7501 2 4.800771 9.012908 70.842383
7502 2 3.711596 8.88807 69.654945
7503 5 4.618113 9.262196 69.905515
7504 2 21.430346 34.339041 71.802777
7505 2 21.279414 33.832099 70.275647
7506 5 21.341044 33.53321 71.240735
7507 2 2.781222 36.565555 67.920738
7508 2 1.646459 36.87918 69.027919
7509 5 2.052066 36.157662 68.44532
7510 2 20.466374 8.298197 71.939011
7511 2 21.740939 8.214817 70.948844
7512 5 20.880234 7.758829 71.224145
7513 2 12.114682 26.905832 70.533827
7514 2 12.322807 27.196131 68.957659
7515 5 12.260549 27.62366 69.873012
7516 2 19.96707 46.633571 68.00543
7517 2 20.456401 45.359964 67.139188
7518 5 20.468227 45.785422 68.057541
7519 2 9.629284 17.853369 62.848237
7520 2 8.90933 19.123703 62.155553
7521 5 8.751042 18.228984 62.601591
7522 2 16.554291 22.950478 65.15408
7523 2 17.266734 23.195583 63.72431
7524 5 17.319822 22.679969 64.593707
7525 2 29.646543 45.090903 58.676892
7526 2 30.036877 45.25527 60.236546
7527 5 29.782888 45.75487 59.393683
7528 2 31.770532 49.87333 75.601623
7529 2 31.351763 50.725984 74.294141
7530 5 31.482029 50.766228 75.297106
7531 2 25.558885 22.304816 73.859625
7532 2 24.724951 20.997923 73.40303
7533 5 25.625404 21.458005 73.357911
7534 2 13.539817 24.609351 71.189969
7535 2 14.998667 24.183567 70.640098
7536 5 14.280302 24.895749 70.604402
7537 2 27.598318 15.837117 69.199236
7538 2 28.718785 16.220085 70.299137
7539 5 28.069013 16.595292 69.619767
7540 2 22.58637 6.093353 67.620604
7541 2 21.815684 5.390552 66.386097
7542 5 21.746083 6.100898 67.103796
7543 2 22.718835 60.886064 64.695126
7544 2 24.23408 60.634909 64.192286
7545 5 23.257171 60.503309 63.962376
7546 2 9.449216 49.486199 63.33966
7547 2 10.538212 50.653557 63.591177
7548 5 10.131824 50.042098 62.894402
7549 2 23.132827 21.836551 62.075182
7550 2 24.022396 23.17462 61.901589
7551 5 24.046876 22.162732 61.89812
7552 2 19.464764 11.745411 64.362557
7553 2 18.190927 11.786112 65.356326
7554 5 18.708764 11.211262 64.703702
7555 2 8.241567 48.085976 69.733375
7556 2 6.841832 47.317951 69.983924
7557 5 7.374455 47.863976 69.318569
7558 2 6.487644 4.236589 65.579833
7559 2 6.90913 5.675044 64.975604
7560 5 7.194636 4.709602 65.080181
7561 2 9.666814 58.562701 62.910116
7562 2 9.436235 60.148868 62.703231
7563 5 9.574683 59.419186 63.390924
7564 2 10.731066 18.969942 60.932132
7565 2 9.479317 18.225741 60.231286
7566 5 10.337902 18.733302 60.058831
7567 2 17.753676 9.918689 60.902477
7568 2 16.187222 9.589955 60.678757
7569 5 16.841807 10.25744 61.066712
7570 2 2.397029 2.049369 72.331818
7571 2 2.989508 2.097448 70.82897
7572 5 2.160629 2.237672 71.392729
7573 2 7.959622 7.199797 74.722426
7574 2 9.092213 8.026995 75.525467
7575 5 8.835439 7.643229 74.624735
7576 2 5.988189 14.862883 62.120594
7577 2 6.245653 13.30115 61.794099
7578 5 5.534403 14.010339 61.919402
7579 2 17.056895 13.74269 59.621825
7580 2 15.854933 14.46948 60.421175
7581 5 16.236448 13.574143 60.143064
7582 2 14.999176 20.558677 67.836562
7583 2 13.454217 20.353961 67.408672
7584 5 14.06947 20.723463 68.122436
7585 2 17.470806 24.585327 73.972318
7586 2 18.532897 23.434344 74.371189
7587 5 18.419041 24.322923 73.900029
7588 2 31.00415 56.245666 62.248937
7589 2 30.332092 57.213845 61.143106
7590 5 30.538958 56.25151 61.378999
7591 2 17.174467 57.102506 62.282999
7592 2 16.323371 56.790362 60.945054
7593 5 16.645047 56.407369 61.825037
7594 2 8.426254 22.219499 62.343832
7595 2 9.512778 22.765525 63.40836
7596 5 8.617753 22.303604 63.307931
7597 2 5.788577 60.491773 74.27245
7598 2 6.183416 60.954181 75.769841
7599 5 5.76048 61.252471 74.899969
7600 2 12.886928 10.16967 59.278023
7601 2 13.611134 10.251985 60.720467
7602 5 13.163496 9.631862 60.057448
7603 2 11.649339 41.35482 71.260417
7604 2 11.236797 41.396048 69.698365
7605 5 11.147277 41.872248 70.587043
7606 2 21.109473 38.433183 75.476132
7607 2 21.463433 39.692875 74.527563
7608 5 21.841866 39.030153 75.19248
7609 2 1.010625 55.914634 69.707591
7610 2 2.364157 56.462593 70.400113
7611 5 1.352987 56.502266 70.422229
7612 2 19.472868 44.06214 75.544745
7613 2 20.173649 45.468756 75.921882
7614 5 19.4491 45.032069 75.36613
7615 2 3.252806 27.846777 72.356623
7616 2 3.142027 27.168498 70.893899
7617 5 3.657819 27.169317 71.764809
7618 2 28.085838 33.542664 69.885678
7619 2 27.309265 34.190888 71.146089
7620 5 27.194466 33.660595 70.291608
7621 2 8.925738 3.991854 73.497405
7622 2 9.785745 2.745758 74.062675
7623 5 9.373545 3.153525 73.23301
7624 2 32.431398 36.784928 61.403028
7625 2 33.14965 36.109625 62.683643
7626 5 33.083891 36.096284 61.67368
7627 2 21.496341 35.503694 76.171952
7628 2 20.222672 36.498513 76.17222
7629 5 21.071853 36.247321 75.681993
7630 2 8.927726 52.041172 63.026068
7631 2 9.333979 52.119863 61.463807
7632 5 8.75643 52.530312 62.186645
7633 2 25.826089 9.977517 71.729678
7634 2 24.727671 10.710882 72.661101
7635 5 24.902032 10.322741 71.742694
7636 2 31.383513 10.412507 73.10234
7637 2 31.478238 10.062119 71.52749
7638 5 31.51044 9.673313 72.461471
7639 2 34.094564 52.493717 70.611555
7640 2 34.677699 51.667504 69.350912
7641 5 34.834366 51.90921 70.321252
7642 2 30.358942 20.007296 74.956326
7643 2 28.930377 19.341382 75.31362
7644 5 29.385922 20.169925 74.95234
7645 2 20.212984 43.966454 65.437463
7646 2 20.740899 42.445071 65.573824
7647 5 21.019746 43.400639 65.390355
7648 2 23.101501 25.624736 64.162058
7649 2 22.141207 25.452406 62.873635
7650 5 22.167749 25.703904 63.853723
7651 2 12.526477 58.672162 75.888659
7652 2 11.484638 58.908652 74.676
7653 5 12.457951 58.962976 74.948466
7654 2 10.82414 25.513609 75.176962
7655 2 9.649892 25.081512 76.199864
7656 5 10.457013 25.679915 76.077401
7657 2 28.239574 50.2865 63.917808
7658 2 26.911001 51.147255 63.592397
7659 5 27.254534 50.273349 63.970289
7660 2 31.84029 15.85772 74.792622
7661 2 32.681972 15.828426 76.171973
7662 5 32.406957 16.404759 75.386648
7663 2 31.129176 2.778071 71.080844
7664 2 31.183723 4.370185 71.353046
7665 5 31.123764 3.658495 70.635809
7666 2 7.382577 1.739631 70.79841
7667 2 7.846284 2.829173 69.698515
7668 5 7.721832 2.659454 70.688583
7669 2 1.864464 35.268047 70.508204
7670 2 1.735286 34.16903 69.330338
7671 5 1.215863 34.78325 69.944715
7672 2 12.235436 32.641439 72.24486
7673 2 10.972275 32.223939 71.327248
7674 5 11.926994 31.991321 71.569996
7675 2 15.350087 26.137111 73.32237
7676 2 15.858027 25.829008 71.819384
7677 5 15.222219 25.536193 72.550503
7678 2 11.522046 30.020442 72.675117
7679 2 11.203636 29.972124 71.091395
7680 5 10.805794 30.138638 72.007103
7681 2 24.030506 5.018588 72.839182
7682 2 24.617785 5.060105 71.334099
7683 5 24.865968 5.019651 72.314556
7684 2 8.620816 26.924183 71.413734
7685 2 9.70353 26.421571 70.324235
7686 5 8.841278 26.936028 70.452232
7687 2 14.651635 20.280816 65.0976
7688 2 14.527256 18.988222 66.059695
7689 5 15.175228 19.584951 65.561123
7690 2 10.877286 20.918078 58.131062
7691 2 10.040203 19.53902 58.034178
7692 5 10.96972 19.939454 58.047509
7693 2 18.908314 8.542683 67.942583
7694 2 18.647778 8.921547 69.491931
7695 5 18.286829 8.409312 68.697036
7696 2 7.509667 12.106105 72.23398
7697 2 7.695062 11.518953 73.728228
7698 5 7.037799 11.940948 73.084447
7699 2 23.691208 54.939994 68.148883
7700 2 22.732534 55.826819 69.100923
7701 5 23.582279 55.277762 69.06936
7702 2 25.844876 35.82251 71.374285
7703 2 26.195745 37.051741 70.385459
7704 5 26.416482 36.620293 71.274084
7705 2 19.297438 30.842304 72.681451
7706 2 17.814672 31.175745 72.131799
7707 5 18.38451 31.087536 72.963683
7708 2 28.537469 33.57148 66.560841
7709 2 29.241851 33.526542 68.014706
7710 5 29.124344 34.075879 67.172716
7711 2 20.521256 34.113752 74.13324
7712 2 21.614196 35.25514 73.7947
7713 5 21.457092 34.385107 74.287536
7714 2 27.85988 56.384264 75.697684
7715 2 27.74354 57.99434 75.775248
7716 5 27.218864 57.133953 75.680506
7717 2 27.342473 25.133665 72.80963
7718 2 27.17653 25.686278 74.319258
7719 5 26.684613 25.476759 73.459813
7720 2 19.497112 57.300435 65.67611
7721 2 21.083553 57.065453 65.476395
7722 5 20.351698 57.763939 65.508546
7723 2 26.060322 58.721529 71.206521
7724 2 26.499955 59.468487 69.842456
7725 5 26.818656 59.159252 70.752033
7726 2 17.218538 13.519449 64.153608
7727 2 18.030303 14.393168 63.062944
7728 5 17.117143 14.042773 63.323498
7729 2 9.853237 16.879094 64.915189
7730 2 10.073778 15.29603 64.676098
7731 5 10.058093 16.202864 64.226729
7732 2 28.22011 60.009706 68.598875
7733 2 28.557163 58.631801 69.373257
7734 5 28.211597 59.02741 68.508037
7735 2 1.880682 18.952105 64.633362
7736 2 2.626069 19.740693 63.435687
7737 5 2.364045 18.826613 63.782572
7738 2 14.11541 31.917672 69.164779
7739 2 13.241675 30.692398 68.575555
7740 5 14.161824 30.970602 68.892504
7741 2 6.979195 15.85708 60.42706
7742 2 7.815163 14.558767 60.903962
7743 5 7.306762 14.974041 60.133506
7744 2 2.146421 42.761197 73.837544
7745 2 1.650918 44.241775 74.25499
7746 5 1.956913 43.662311 73.483552
7747 2 25.723499 42.0107 65.914889
7748 2 27.010283 41.427956 66.700061
7749 5 26.612016 42.25255 66.268835
7750 2 20.540919 53.80649 72.383214
7751 2 20.877167 53.009923 71.017815
7752 5 20.193097 53.130992 71.753966
7753 2 11.525734 4.043402 74.423687
7754 2 11.649021 3.389431 72.950929
7755 5 11.335427 4.200749 73.468566
7756 2 13.441629 16.400175 75.842013
7757 2 13.498766 16.304236 74.229739
7758 5 12.8882 16.267446 75.036203
7759 2 16.361068 32.531744 66.361757
7760 2 16.626156 33.498532 65.094103
7761 5 17.070131 32.922131 65.79779
7762 2 32.681116 52.776789 61.141362
7763 2 31.638171 51.590054 60.801035
7764 5 32.304011 51.931485 61.482658
7765 2 29.419489 7.39811 70.848323
7766 2 27.813802 7.439157 70.6695
7767 5 28.572108 7.545728 71.331422
7768 2 20.944795 14.511722 60.151007
7769 2 21.438091 14.316358 61.677568
7770 5 21.240932 14.998583 60.956302
7771 2 28.72217 49.257452 69.478667
7772 2 29.93556 50.184202 70.008492
7773 5 29.616235 49.602341 69.244295
7774 2 27.947633 37.047456 65.736862
7775 2 28.586959 35.805569 64.923921
7776 5 27.828443 36.475536 64.94192
7777 2 34.454597 3.425854 72.435389
7778 2 35.071306 3.913661 73.847342
7779 5 34.419164 4.145845 73.108878
7780 2 15.765971 6.983723 66.418082
7781 2 15.307984 7.015105 67.96765
7782 5 15.967579 7.386589 67.295741
7783 2 34.703695 36.160097 66.709016
7784 2 33.902837 35.40029 67.889362
7785 5 34.695534 35.343517 67.262516
7786 2 6.545719 40.62696 63.739183
7787 2 6.275854 40.165077 65.264218
7788 5 6.738404 39.918655 64.398279
7789 2 12.942873 42.510671 68.869995
7790 2 13.426943 44.0069 68.497342
7791 5 13.736167 43.093488 68.804893
7792 2 4.528557 24.523923 66.494452
7793 2 3.208519 24.635442 65.568731
7794 5 3.795293 25.128527 66.229859
7795 2 11.951314 60.557656 66.410928
7796 2 13.046416 61.084094 67.476531
7797 5 12.077807 61.149402 67.190073
7798 2 4.228861 14.661067 70.919028
7799 2 2.758349 15.149475 71.378319
7800 5 3.592366 14.657281 71.672746
7801 2 29.595486 52.808442 68.716095
7802 2 28.482295 51.641426 68.612294
7803 5 29.427944 51.902578 68.363148
7804 2 25.935983 19.982643 63.008529
7805 2 24.336849 19.940155 63.238443
7806 5 25.098587 20.477613 62.844206
7807 2 7.460598 50.407514 63.156239
7808 2 6.215179 50.983826 64.009872
7809 5 7.224679 50.930962 63.95847
7810 2 25.61152 14.759045 70.339187
7811 2 24.923758 14.335515 71.739009
7812 5 25.529095 15.010806 71.289478
7813 2 30.320987 24.136823 62.275
7814 2 30.380484 24.889841 63.703748
7815 5 29.785173 24.658343 62.918546
7816 2 34.617675 40.379246 63.93539
7817 2 35.417935 41.658703 63.357056
7818 5 34.571516 41.109865 63.274107
7819 2 29.951664 47.942271 71.215112
7820 2 29.674224 47.165105 72.604692
7821 5 30.227145 47.887441 72.160804
7822 2 24.364533 23.138119 66.531012
7823 2 24.588581 21.632301 65.988599
7824 5 25.055645 22.465126 66.324429
7825 2 6.822999 27.517606 68.215026
7826 2 7.469318 26.360842 67.289789
7827 5 7.627278 27.273201 67.698663
7828 2 20.261805 19.624101 65.096956
7829 2 20.98747 18.710592 66.21535
7830 5 20.958939 18.938805 65.229636
7831 2 10.522369 6.374476 74.018806
7832 2 10.736728 5.982527 75.571971
7833 5 10.209344 5.771578 74.73418
7834 2 11.454513 39.217064 69.877849
7835 2 10.668404 39.385828 71.279793
7836 5 10.583067 39.078774 70.319083
7837 2 23.597141 46.896335 74.110264
7838 2 25.119343 46.861536 73.56843
7839 5 24.521923 47.161751 74.328355
7840 2 29.644327 38.461703 66.51977
7841 2 30.086728 37.616531 67.824323
7842 5 29.320437 38.108033 67.381885
7843 2 32.547826 59.159137 71.663536
7844 2 32.005581 59.19149 73.185646
7845 5 31.915297 59.61269 72.269694
7846 2 19.791288 50.02075 76.007475
7847 2 21.304433 50.565758 76.166389
7848 5 20.385363 50.780762 75.800862
7849 2 8.513276 18.233059 69.749589
7850 2 9.480922 19.136843 68.822912
7851 5 9.444799 18.336691 69.441765
7852 2 11.854229 55.31522 69.27254
7853 2 12.16978 55.719203 70.805224
7854 5 11.660944 55.077579 70.210302
7855 2 1.953592 50.870597 71.481179
7856 2 0.998456 51.858643 70.630663
7857 5 1.045843 50.966833 71.107064
7858 2 35.433 59.283109 68.050188
7859 2 34.645315 60.4854 67.311309
7860 5 35.429403 60.259657 67.910285
7861 2 22.803271 50.725768 64.249179
7862 2 22.647586 50.334185 62.688948
7863 5 22.213194 50.818933 63.464093
7864 2 29.410793 38.938117 63.843255
7865 2 29.820293 39.311304 62.325053
7866 5 30.170439 38.980464 63.215261
7867 2 19.806113 35.925024 71.929609
7868 2 18.796953 35.627187 73.156306
7869 5 19.486183 35.217725 72.538382
7870 2 24.514379 7.656085 61.2326
7871 2 24.246351 8.075003 59.694886
7872 5 24.552571 7.326481 60.303551
7873 2 10.1152 37.156806 69.356926
7874 2 9.07551 35.921977 69.435262
7875 5 9.17429 36.923838 69.54035
7876 2 31.443997 36.16696 65.534301
7877 2 30.153533 35.887398 66.466204
7878 5 30.829595 35.460616 65.845459
7879 2 6.668545 4.334614 62.978341
7880 2 7.079391 2.856515 62.470086
7881 5 6.532007 3.372331 63.147456
7882 2 21.706043 16.271162 65.679785
7883 2 21.903238 16.495844 67.268032
7884 5 22.149881 16.843206 66.349863
7885 2 11.983024 11.114726 62.317419
7886 2 12.219813 10.461029 63.77636
7887 5 12.66378 10.700126 62.898719
7888 2 0.928366 49.27175 67.014372
7889 2 1.359801 49.959663 65.61704
7890 5 1.085214 49.090625 66.057385
7891 2 12.317252 48.251058 75.130803
7892 2 11.866811 48.689653 73.641967
7893 5 12.41974 48.95493 74.447216
7894 2 7.755188 33.365597 61.968342
7895 2 8.657394 33.021976 60.672253
7896 5 8.67828 33.375568 61.620443
7897 2 14.170068 29.43259 67.030616
7898 2 13.915635 30.936885 66.497459
7899 5 14.615184 30.293223 66.845105
7900 2 6.651966 43.311519 73.250821
7901 2 5.425584 42.635675 74.057739
7902 5 5.955274 42.615254 73.195452
7903 2 13.421819 57.345399 60.861673
7904 2 12.797968 56.147959 59.973505
7905 5 12.885759 57.15294 60.056174
7906 2 4.483594 42.450341 62.641463
7907 2 2.913785 42.825245 62.557543
7908 5 3.755716 42.677432 62.015481
7909 2 27.400235 22.091815 69.112299
7910 2 27.678752 23.673534 69.292541
7911 5 27.478638 22.943474 68.620608
7912 2 24.562616 12.886999 68.36349
7913 2 25.916528 13.764984 68.274258
7914 5 25.409364 13.086754 68.82862
7915 2 0.986797 37.460621 67.016501
7916 2 1.888209 38.619783 67.691552
7917 5 1.002587 38.420472 67.243806
7918 2 31.250689 2.9901 68.028057
7919 2 32.856939 2.818055 67.980536
7920 5 32.029809 2.98963 67.42291
7921 2 3.260129 12.253325 69.958117
7922 2 2.173509 12.448397 71.138413
7923 5 2.840629 12.925812 70.545494
7924 2 26.774894 11.831092 66.823522
7925 2 26.915603 11.539917 68.406972
7926 5 27.34653 11.993083 67.611064
7927 2 22.158584 40.653685 71.154222
7928 2 22.090514 40.610677 69.540093
7929 5 22.399243 41.15214 70.337609
7930 2 31.273888 37.023387 63.380262
7931 2 30.347057 37.117001 62.059612
7932 5 30.38705 36.789868 63.016645
7933 2 26.829656 49.181186 76.106558
7934 2 27.588451 50.601612 75.970486
7935 5 26.704538 50.156728 76.183334
7936 2 3.845893 27.418983 67.591641
7937 2 4.162648 26.399236 68.804768
7938 5 4.459301 26.704846 67.886549
7939 2 20.011515 60.328694 73.368028
7940 2 19.391131 60.527453 74.847052
7941 5 20.157798 60.125727 74.3223
7942 2 17.11968 55.493294 63.78199
7943 2 18.094718 55.72571 65.049736
7944 5 17.184337 55.390492 64.761011
7945 2 35.412526 58.787885 72.767305
7946 2 34.804196 59.018133 74.24677
7947 5 34.571845 58.918938 73.266616
7948 2 13.777778 42.508166 75.047544
7949 2 13.2254 44.026676 75.017523
7950 5 12.956086 43.053061 75.081332
7951 2 23.775393 27.563567 60.424752
7952 2 24.956428 26.462242 60.489044
7953 5 24.300455 27.000112 61.041241
7954 2 33.69729 19.138876 60.37002
7955 2 32.297464 19.082326 59.5643
7956 5 32.748965 19.407825 60.409714
7957 2 2.539091 36.38093 76.170542
7958 2 1.58184 35.104293 75.914096
7959 5 2.469422 35.529366 75.677373
7960 2 2.30574 51.204471 61.985373
7961 2 1.108423 51.93713 62.786334
7962 5 2.000527 52.077337 62.329148
7963 2 11.109598 1.120968 73.07742
7964 2 11.547853 1.646026 71.613131
7965 5 11.764868 0.988982 72.351863
7966 2 28.40271 5.304484 65.045466
7967 2 29.847392 5.998701 64.838459
7968 5 28.868086 6.174098 65.024801
7969 2 18.68419 34.572576 68.004329
7970 2 17.770019 34.816194 69.31461
7971 5 18.715101 34.662859 68.986227
7972 2 32.931919 10.117786 69.24037
7973 2 34.422682 9.522871 69.42904
7974 5 33.78763 9.962319 68.774731
7975 2 30.20399 34.764858 63.855503
7976 2 30.849754 34.241356 62.469563
7977 5 30.257314 33.987766 63.250097
7978 2 30.708533 6.500244 72.790134
7979 2 29.260844 5.992996 73.298849
7980 5 29.888794 6.030708 72.50589
7981 2 11.94286 34.779728 70.558738
7982 2 10.609766 34.375126 69.73956
7983 5 10.976513 34.961381 70.478701
7984 2 30.434935 42.503416 61.179878
7985 2 30.277737 42.126759 59.616128
7986 5 30.402958 41.747877 60.546341
7987 2 3.519874 31.578295 70.552021
7988 2 2.290265 32.0609 69.620866
7989 5 3.292302 31.922242 69.655839
7990 2 18.828156 36.778298 68.330535
7991 2 19.870937 37.994954 68.120178
7992 5 18.904408 37.76165 68.309697
7993 2 8.488673 19.804466 71.28444
7994 2 8.139506 19.246607 72.760507
7995 5 8.460481 18.987202 71.836271
7996 2 20.738944 28.168696 65.633933
7997 2 22.140975 28.66526 66.266096
7998 5 21.305406 28.963294 65.778728
7999 2 32.574327 39.584275 66.641589
8000 2 31.953779 38.273883 65.927664
8001 5 32.650315 39.003905 65.847469
8002 2 9.119657 14.229291 68.819099
8003 2 9.722238 15.726541 68.902962
8004 5 9.079026 15.12392 68.405315
8005 2 21.841984 7.363416 62.312797
8006 2 21.173672 6.005861 61.745083
8007 5 21.003905 6.980131 61.960735
8008 2 6.815199 38.481998 60.763602
8009 2 6.897047 37.841658 62.24521
8010 5 6.892978 37.630308 61.25534
8011 2 17.757926 4.580486 70.634011
8012 2 17.074943 3.234944 71.212755
8013 5 17.069034 4.24619 71.256028
8014 2 33.661395 29.44251 60.441646
8015 2 32.499473 28.623425 61.210367
8016 5 32.846976 28.903595 60.301921
8017 2 5.600123 48.292705 66.970358
8018 2 5.765254 49.532684 65.94709
8019 5 5.430665 48.582182 66.04261
8020 2 2.728374 43.809134 76.123804
8021 2 3.584277 42.442287 76.018664
8022 5 3.642183 43.440808 76.174
8023 2 32.730924 45.613159 74.830216
8024 2 33.111378 46.421009 76.17726
8025 5 33.372921 45.647995 75.578452
8026 2 6.988862 13.748262 69.062799
8027 2 6.18754 13.767433 70.466156
8028 5 7.038146 13.467002 70.007095
8029 2 22.385763 1.107853 75.173623
8030 2 22.228546 1.002719 73.568592
8031 5 22.888671 1.130372 74.325208
8032 2 17.939547 57.929922 71.205501
8033 2 17.643087 57.142131 72.585136
8034 5 18.282939 57.225999 71.805339
8035 2 33.135323 13.329586 69.125964
8036 2 32.752961 12.794127 67.649828
8037 5 32.468646 13.407662 68.403001
8038 2 3.843867 58.038007 62.370648
8039 2 4.677661 57.630497 63.693758
8040 5 4.401583 58.401391 63.098753
8041 2 27.480232 8.294629 76.172694
8042 2 28.194009 8.177553 74.727456
8043 5 28.217102 8.650818 75.621891
8044 2 11.046644 60.134875 71.567944
8045 2 12.513575 59.631923 72.02297
8046 5 12.01117 60.242117 71.390688
8047 2 26.210727 56.184847 70.311085
8048 2 25.279824 56.716379 69.101627
8049 5 25.599291 56.910843 70.042187
8050 2 10.327695 9.211622 65.93496
8051 2 11.573783 10.210238 66.183811
8052 5 11.095744 9.387374 66.528629
8053 2 9.258698 4.974238 64.36678
8054 2 10.262312 3.929183 65.082681
8055 5 9.673659 4.739244 65.230386
8056 2 3.43571 7.50566 61.243789
8057 2 2.679365 6.273262 61.965616
8058 5 2.582595 7.232388 61.657005
8059 2 29.11005 2.121223 76.100879
8060 2 30.499233 2.943975 76.172612
8061 5 29.80677 2.549088 75.548843
8062 2 10.007437 52.437584 66.828327
8063 2 10.280182 53.217768 68.217146
8064 5 9.636637 52.610121 67.726085
8065 2 21.945923 12.471995 60.460999
8066 2 20.567776 11.703519 60.111639
8067 5 20.999919 12.382024 60.725976
8068 2 3.98903 43.066588 69.777181
8069 2 4.36564 44.05055 68.551669
8070 5 4.679438 43.686754 69.442574
8071 2 18.575351 17.845712 65.416333
8072 2 19.078715 18.052334 63.894549
8073 5 19.280417 17.593651 64.774011
8074 2 6.742178 42.189874 70.957864
8075 2 6.710941 43.659288 70.285747
8076 5 6.341573 43.088069 71.035282
8077 2 9.777203 12.574662 73.725273
8078 2 9.678358 11.717831 72.358537
8079 5 10.10642 12.523623 72.796703
8080 2 33.67776 41.414005 68.690832
8081 2 34.280589 42.782376 69.304064
8082 5 33.68012 42.395064 68.587159
8083 2 28.523294 2.758713 73.028232
8084 2 29.684713 3.873243 72.883929
8085 5 29.36568 3.081335 73.427645
8086 2 22.217977 32.820745 66.415338
8087 2 22.161765 31.218078 66.214852
8088 5 22.650616 32.064631 65.952363
8089 2 4.972831 48.587066 76.172096
8090 2 6.147084 48.898941 75.106376
8091 5 5.89494 48.927031 76.086254
8092 2 30.34517 18.365456 70.248798
8093 2 30.176245 17.861046 68.722714
8094 5 29.679478 18.093492 69.57343
8095 2 14.33842 53.498333 70.140374
8096 2 14.234355 55.097738 70.347671
8097 5 13.700733 54.244063 70.242718
8098 2 20.606048 43.654114 70.598203
8099 2 20.872162 43.846504 69.015779
8100 5 21.110585 43.294936 69.830306
8101 2 9.590153 39.637491 68.410281
8102 2 10.395984 38.875938 67.234454
8103 5 10.366519 39.710777 67.806033
8104 2 0.999835 21.883581 70.327596
8105 2 2.108433 21.136026 69.419814
8106 5 1.177181 21.062919 69.809626
8107 2 14.348202 2.067288 76.201591
8108 2 15.002277 0.937155 75.249288
8109 5 14.655178 1.129981 76.180346
8110 2 20.224188 10.0564 61.603248
8111 2 20.303449 9.520054 60.080767
8112 5 20.176336 9.243637 61.04615
8113 2 13.00183 16.870154 67.869543
8114 2 13.087877 17.343932 66.326809
8115 5 13.630835 17.07639 67.13807
8116 2 8.965007 38.651229 75.10757
8117 2 9.293816 39.822089 76.171932
8118 5 9.346171 38.825886 76.000565
8119 2 12.735892 51.251943 72.686031
8120 2 13.701388 52.389445 72.0649
8121 5 12.804493 52.218697 72.50188
8122 2 20.12008 6.012638 68.582477
8123 2 19.488774 6.90972 69.769319
8124 5 20.351837 6.589876 69.348191
8125 2 15.788409 57.942135 70.749659
8126 2 16.398361 57.386655 69.359948
8127 5 16.007419 57.117747 70.254028
8128 2 20.40362 56.951798 59.68126
8129 2 20.258234 56.435637 61.205837
8130 5 20.655407 56.22498 60.298972
8131 2 1.430513 37.770447 60.907667
8132 2 0.996082 38.099654 62.42911
8133 5 1.709845 38.244883 61.726273
8134 2 33.844231 11.714536 74.162847
8135 2 34.052348 10.402952 73.241799
8136 5 33.419932 11.161051 73.465097
8137 2 29.274251 50.545009 73.600597
8138 2 29.296725 51.69896 74.731873
8139 5 28.697668 51.128871 74.148216
8140 2 11.283135 14.368315 73.146721
8141 2 12.488641 15.070956 72.33128
8142 5 12.031972 15.004845 73.232174
8143 2 19.730798 3.623061 70.594222
8144 2 19.831765 3.108185 69.065626
8145 5 19.653931 3.912247 69.654172
8146 2 1.006785 22.15539 66.691719
8147 2 0.957797 22.5943 68.246342
8148 5 1.046263 21.808565 67.614424
8149 2 20.60752 27.707324 68.316621
8150 2 21.422295 26.375662 67.898633
8151 5 20.811866 27.108499 67.559731
8152 2 23.433014 24.982441 59.914532
8153 2 22.231992 24.56118 58.918549
8154 5 22.907741 25.282892 59.135398
8155 2 9.710962 27.603411 61.007907
8156 2 10.378389 27.664198 62.478533
8157 5 10.16221 28.202313 61.648939
8158 2 9.8195 25.456295 61.488439
8159 2 9.520059 24.923964 62.984719
8160 5 10.150505 25.476584 62.417554
8161 2 7.729274 29.1966 71.652914
8162 2 7.249536 28.501168 70.275191
8163 5 7.051831 29.240943 70.937137
8164 2 15.769195 6.465601 72.751074
8165 2 14.950829 6.888349 71.423122
8166 5 15.079701 7.082243 72.408172
8167 2 1.568784 37.402832 64.434989
8168 2 2.655511 37.182271 65.61069
8169 5 2.348825 36.860732 64.701248
8170 2 19.174635 33.750089 70.929277
8171 2 18.362867 33.302148 72.253013
8172 5 18.901742 32.96744 71.464273
8173 2 30.597076 35.731628 74.867211
8174 2 30.31149 37.012099 73.923426
8175 5 30.437235 36.007803 73.933718
8176 2 18.743541 1.551423 62.381111
8177 2 19.105158 2.099113 60.904235
8178 5 18.660651 1.3495 61.419036
8179 2 4.731051 53.56511 72.012756
8180 2 5.44598 52.938986 73.319944
8181 5 5.341406 53.774918 72.758865
8182 2 31.358775 46.408702 70.500628
8183 2 30.528365 46.417199 69.114178
8184 5 30.696303 45.904978 69.970889
8185 2 26.586671 15.46842 60.307236
8186 2 27.125411 15.323198 58.790475
8187 5 27.345341 15.14968 59.763126
8188 2 4.143695 8.031297 67.641037
8189 2 5.010439 8.551644 66.380129
8190 5 4.078401 8.489889 66.770026
8191 2 19.301101 19.389301 67.643167
8192 2 18.896394 20.606642 66.660218
8193 5 19.657002 20.181549 67.175289
8194 2 23.328572 47.567191 70.217585
8195 2 24.105121 47.076781 71.547384
8196 5 23.194536 47.262184 71.146151
8197 2 30.032379 15.59202 58.883224
8198 2 28.90257 16.377615 58.035716
8199 5 29.313406 15.470826 58.218678
8200 2 27.698035 39.737865 62.718158
8201 2 26.191762 40.307021 62.856356
8202 5 26.810934 39.545772 63.104658
8203 2 22.294149 12.324911 71.139455
8204 2 21.664576 12.201215 72.622773
8205 5 21.994275 12.849784 71.91908
8206 2 11.808849 36.931606 70.996061
8207 2 11.979663 37.068399 72.597313
8208 5 11.844885 37.582927 71.736138
8209 2 11.606668 42.18381 63.788521
8210 2 11.027458 42.247665 62.281094
8211 5 11.277192 42.79974 63.09188
8212 2 20.135874 38.946165 62.564403
8213 2 19.328396 38.716607 63.945409
8214 5 20.017262 38.320893 63.318192
8215 2 26.940614 9.206715 68.621993
8216 2 25.54629 9.466207 67.847123
8217 5 26.18012 8.753725 68.18647
8218 2 34.862038 19.901509 67.332622
8219 2 34.537674 20.526297 68.78738
8220 5 34.135188 20.071539 67.97761
8221 2 25.82388 33.300939 67.655012
8222 2 25.520719 32.807339 69.163769
8223 5 25.997772 32.576306 68.301463
8224 2 3.470334 9.671461 61.625682
8225 2 4.003039 9.578512 63.148667
8226 5 4.043023 10.118188 62.293285
8227 2 27.494213 38.636437 71.337075
8228 2 26.181843 38.563861 72.277456
8229 5 26.677856 39.125547 71.597009
8230 2 10.741636 57.156756 69.720847
8231 2 10.455041 58.091717 71.007551
8232 5 10.424888 57.143373 70.655044
8233 2 30.123156 8.345554 67.561561
8234 2 30.027266 7.837827 66.03025
8235 5 29.508665 7.964998 66.890138
8236 2 14.921177 15.401478 67.747528
8237 2 15.769543 14.684963 66.573315
8238 5 15.004805 14.568227 67.22606
8239 2 18.132769 30.745272 67.875455
8240 2 17.898112 30.464153 66.301352
8241 5 17.465231 30.802732 67.151355
8242 2 23.009233 43.427113 67.438064
8243 2 23.32003 43.92811 68.942824
8244 5 22.839957 44.155706 68.081281
8245 2 15.677961 44.887069 74.203699
8246 2 15.509957 43.300323 73.946975
8247 5 15.069956 44.204646 73.832404
8248 2 30.466932 57.412462 71.41215
8249 2 30.988185 56.937289 72.866249
8250 5 31.246077 57.424173 72.017153
8251 2 9.552164 30.915064 69.913652
8252 2 10.555674 31.959188 69.196248
8253 5 9.584355 31.75043 69.38986
8254 2 20.195967 46.95229 73.379943
8255 2 21.520811 46.743239 72.478287
8256 5 20.52863 46.941668 72.451259
8257 2 15.673152 28.776057 60.471311
8258 2 16.46544 27.587479 61.227259
8259 5 16.536542 28.537217 60.884521
8260 2 23.07184 29.874763 64.682013
8261 2 23.896738 30.899123 63.742797
8262 5 23.05993 30.333495 63.808713
8263 2 28.794397 14.886024 75.854801
8264 2 30.02257 15.921695 76.030506
8265 5 29.715592 14.971705 76.197275
8266 2 20.404359 50.868407 70.862178
8267 2 20.59917 50.877935 72.466501
8268 5 20.513527 50.285316 71.650415
8269 2 3.486996 22.50586 64.184848
8270 2 2.002107 22.782665 63.610063
8271 5 2.865364 23.219776 63.907129
8272 2 6.692621 17.826331 74.96798
8273 2 7.320359 18.704099 76.171044
8274 5 6.459665 18.360673 75.76387
8275 2 3.291684 23.499974 60.036988
8276 2 3.643355 24.582729 61.184099
8277 5 3.060373 23.788643 60.951535
8278 2 14.999214 45.311467 63.030497
8279 2 16.388847 44.923333 62.30237
8280 5 15.47327 45.33265 62.165597
8281 2 19.775264 44.725997 60.949425
8282 2 20.969126 44.83424 59.86551
8283 5 20.087797 45.233246 60.163135
8284 2 16.731532 36.913131 60.173575
8285 2 16.968607 37.276998 61.730268
8286 5 16.290566 37.274345 60.978748
8287 2 13.769 36.004296 70.630773
8288 2 14.003456 37.156005 71.740049
8289 5 13.993393 36.957844 70.747497
8290 2 23.428026 3.215064 71.200879
8291 2 23.496727 2.704725 72.732783
8292 5 23.686706 2.452692 71.771058
8293 2 17.584765 41.245044 69.650945
8294 2 16.745142 42.026986 68.512747
8295 5 17.356331 42.142626 69.311247
8296 2 35.423402 13.836157 64.872086
8297 2 34.531432 12.634502 64.261914
8298 5 35.405207 12.861664 64.719562
8299 2 33.702373 4.303854 69.365248
8300 2 32.21435 4.795792 68.970686
8301 5 32.859448 4.655674 69.737982
8302 2 1.482745 29.204876 75.543986
8303 2 3.020281 29.368891 76.014068
8304 5 2.257978 29.814492 75.519232
8305 2 14.853237 0.996425 67.261428
8306 2 15.482111 1.946576 66.115293
8307 5 15.168432 1.007721 66.326679
8308 2 34.383332 60.057345 69.834331
8309 2 33.376064 59.292372 68.828287
8310 5 33.870284 59.224099 69.708976
8311 2 34.442982 49.805725 70.833049
8312 2 35.41232 49.603733 69.555755
8313 5 34.631685 49.212531 70.06771
8314 2 15.405181 44.733718 69.123245
8315 2 15.363707 44.565583 67.516414
8316 5 15.91616 44.399894 68.348202
8317 2 11.141514 24.727441 68.33663
8318 2 9.929255 25.715094 67.928139
8319 5 10.922157 25.664108 68.118067
8320 2 12.622099 26.142322 64.220679
8321 2 12.172769 27.627359 63.768281
8322 5 12.660103 26.789398 63.476986
8323 2 29.891907 60.136435 73.513393
8324 2 28.858699 59.166808 72.736091
8325 5 29.607953 59.196695 73.415982
8326 2 25.429692 23.735359 68.73664
8327 2 24.568279 24.011864 70.075822
8328 5 25.479593 23.749756 69.721796
8329 2 27.867541 28.929716 68.546592
8330 2 28.72173 27.557773 68.552179
8331 5 28.384909 28.32099 69.125397
8332 2 4.727357 58.679103 66.495945
8333 2 4.019473 59.164301 65.1265
8334 5 4.169065 58.374601 65.741744
8335 2 18.674203 47.80924 70.041695
8336 2 19.013295 49.389273 70.021447
8337 5 18.636523 48.634536 70.58086
8338 2 26.152838 17.898514 63.667432
8339 2 26.011533 16.366188 63.173564
8340 5 25.80201 17.012777 63.923598
8341 2 20.045696 39.415823 72.875081
8342 2 20.436222 38.50501 71.598443
8343 5 20.626533 39.37545 72.078696
8344 2 21.70794 23.409328 71.320304
8345 2 21.836794 23.865107 69.775132
8346 5 21.82357 23.069916 70.40125
8347 2 10.320078 61.12628 69.659159
8348 2 8.93467 60.337795 69.925302
8349 5 9.350489 61.145042 69.478118
8350 2 9.705556 1.747965 70.416615
8351 2 9.23967 1.392663 71.922804
8352 5 9.46572 1.002497 71.016604
8353 2 23.270154 2.942286 66.899565
8354 2 24.830497 2.672563 67.222792
8355 5 23.956454 2.236036 66.958179
8356 2 18.130954 15.621883 75.569766
8357 2 18.349842 14.054667 75.898123
8358 5 17.675511 14.747232 75.597856
8359 2 19.982071 22.167697 73.245369
8360 2 19.669276 23.304327 72.139871
8361 5 20.198162 23.091905 72.976342
8362 2 1.341388 60.457874 59.119169
8363 2 2.274606 61.097792 60.273078
8364 5 1.323227 60.865268 60.017462
8365 2 34.441436 0.988673 76.136754
8366 2 34.529011 2.601568 76.189631
8367 5 33.924265 1.815432 75.987643
8368 2 29.787405 44.563028 75.676598
8369 2 29.409018 43.024132 75.993644
8370 5 29.03899 43.920917 75.704883
8371 2 26.984421 22.940119 71.433412
8372 2 26.849877 21.35774 71.133627
8373 5 26.38467 22.253389 71.056671
8374 2 26.238089 59.612934 67.322197
8375 2 25.291665 60.154691 66.129436
8376 5 25.724751 60.396135 67.011858
8377 2 28.105671 47.509521 66.428675
8378 2 27.999569 47.748434 68.023529
8379 5 28.578954 47.372864 67.283402
8380 2 12.642342 19.335666 75.171307
8381 2 13.798966 18.81586 76.173265
8382 5 13.535493 19.551782 75.530204
8383 2 15.035434 41.223854 73.397948
8384 2 14.154371 39.882722 73.205622
8385 5 14.626978 40.634743 72.7202
8386 2 19.443766 45.04389 72.213425
8387 2 20.397116 44.581034 73.433581
8388 5 19.921697 44.270195 72.595796
8389 2 4.755064 22.591256 68.193215
8390 2 4.44686 21.964892 66.735623
8391 5 4.72888 21.747284 67.683061
8392 2 35.413496 20.89645 63.77195
8393 2 35.41447 21.824811 65.094842
8394 5 35.331447 21.828024 64.086068
8395 2 19.168762 32.756377 66.72422
8396 2 19.975273 31.372475 66.509158
8397 5 20.060241 32.380864 66.530606
8398 2 3.472229 23.932479 69.394609
8399 2 3.632642 22.523395 70.169621
8400 5 2.983444 23.261163 69.927201
8401 2 24.645976 7.748765 66.655441
8402 2 23.238688 8.430457 67.063767
8403 5 23.976156 7.811925 67.376955
8404 2 10.058683 7.018927 64.497891
8405 2 8.867489 7.768628 63.703599
8406 5 9.723421 7.90604 64.226119
8407 2 11.66722 11.122579 68.413382
8408 2 12.090536 10.99428 69.967807
8409 5 12.091535 11.605996 69.161377
8410 2 15.299356 46.638081 64.998918
8411 2 15.370349 48.249155 64.892629
8412 5 15.608919 47.381535 64.429113
8413 2 30.77087 10.464627 68.877871
8414 2 30.162572 11.82483 69.503746
8415 5 29.954979 11.016674 68.930756
8416 2 6.708612 21.659316 59.849076
8417 2 7.98828 22.638432 59.723861
8418 5 7.135795 22.334626 59.270542
8419 2 21.622601 41.70395 67.689139
8420 2 20.923038 40.262701 67.476277
8421 5 21.512506 40.964053 67.045973
8422 2 10.78897 29.050533 69.031923
8423 2 9.225742 28.807016 69.361942
8424 5 10.168535 28.501135 69.567137
8425 2 4.244201 7.242651 63.28126
8426 2 4.899898 7.079014 64.749314
8427 5 4.297955 7.655941 64.175426
8428 2 29.034795 7.989567 63.502616
8429 2 29.585011 8.23874 62.003592
8430 5 29.733069 7.719935 62.860008
8431 2 1.413303 35.948125 62.619318
8432 2 2.89498 36.251717 62.049791
8433 5 2.361935 35.690196 62.701777
8434 2 27.24332 27.853274 61.088411
8435 2 25.948423 28.070271 62.030774
8436 5 26.936349 27.850033 62.025956
8437 2 19.604175 16.036562 70.925255
8438 2 19.979985 16.909473 69.618087
8439 5 19.229973 16.643779 70.243719
8440 2 29.845388 42.433193 71.123494
8441 2 29.691649 43.825959 70.318221
8442 5 30.11314 43.382687 71.124684
8443 2 1.103032 41.721022 69.792972
8444 2 0.94299 41.143013 68.292243
8445 5 1.348957 40.969509 69.203074
8446 2 31.743886 35.809278 67.993346
8447 2 30.582162 35.263066 68.975153
8448 5 31.221735 35.007442 68.233445
8449 2 29.180266 38.557739 69.926018
8450 2 28.329893 37.184602 69.868933
8451 5 28.485547 38.076749 69.416856
8452 2 16.060552 34.78945 66.784751
8453 2 15.868059 34.191684 68.273884
8454 5 16.541832 34.380128 67.542415
8455 2 32.270361 48.423074 71.548066
8456 2 32.289988 50.008095 71.233073
8457 5 31.884621 49.289541 71.81949
8458 2 10.188701 53.017563 72.944735
8459 2 10.351331 53.583595 74.449745
8460 5 10.296194 53.843702 73.473102
8461 2 4.086949 58.363101 72.552449
8462 2 3.235134 59.243045 71.497933
8463 5 3.311499 58.337246 71.943155
8464 2 29.677585 29.228872 66.441434
8465 2 28.215434 29.272453 65.75433
8466 5 28.973326 29.837927 66.115394
8467 2 7.573905 58.022779 76.188279
8468 2 7.06304 58.794667 74.863476
8469 5 7.805086 58.225654 75.250927
8470 2 13.087822 12.050653 66.607042
8471 2 13.580858 11.513359 65.164778
8472 5 13.788095 11.522503 66.155483
8473 2 19.165459 39.787112 69.183416
8474 2 18.769151 39.745147 70.749645
8475 5 18.615875 39.309416 69.848994
8476 2 13.952217 3.488065 72.703403
8477 2 14.509452 4.562249 71.632182
8478 5 14.671693 4.142687 72.53892
8479 2 34.499214 54.440213 67.421693
8480 2 33.401018 53.299922 67.74665
8481 5 34.382584 53.539544 67.806951
8482 2 17.642543 16.254894 64.169468
8483 2 17.157134 16.155971 65.707807
8484 5 17.236129 15.650201 64.834604
8485 2 16.9316 9.702996 71.837578
8486 2 18.403587 9.03785 71.785321
8487 5 17.823808 9.785075 71.424713
8488 2 8.948875 19.029631 65.490961
8489 2 7.871475 19.331394 64.324751
8490 5 8.036277 19.364513 65.322885
8491 2 32.164158 15.793936 62.761257
8492 2 32.791146 15.566929 64.233415
8493 5 32.447852 16.261647 63.58223
8494 2 26.617324 2.546585 74.10638
8495 2 25.661359 3.057741 72.907736
8496 5 26.132957 3.333107 73.759966
8497 2 27.331686 57.003205 66.835856
8498 2 27.467409 56.959625 68.445693
8499 5 26.871434 57.237812 67.676308
8500 2 29.467658 37.324868 71.746541
8501 2 30.496768 36.91712 70.569014
8502 5 30.340255 36.900316 71.568888
8503 2 32.86842 59.800136 75.115432
8504 2 33.540769 60.80726 74.045132
8505 5 32.741663 60.65996 74.648671
8506 2 22.914798 24.324094 74.86491
8507 2 21.505148 24.482783 74.09057
8508 5 21.946325 24.453509 75.001083
8509 2 4.703799 16.414179 69.559733
8510 2 4.948956 16.72831 71.125975
8511 5 4.508242 17.061631 70.277921
8512 2 9.733422 48.241263 73.347651
8513 2 10.45614 47.019178 74.119715
8514 5 9.752892 47.258561 73.432209
8515 2 12.217486 13.76992 75.842034
8516 2 13.696217 13.407948 75.299605
8517 5 12.728666 13.536036 75.03134
8518 2 32.936135 56.875961 67.229212
8519 2 32.211675 55.514178 66.746926
8520 5 32.862793 55.909569 67.413438
8521 2 6.428765 26.749236 71.367263
8522 2 6.384096 27.758242 72.628932
8523 5 6.363427 26.785188 72.350965
8524 2 16.956821 26.599088 67.951819
8525 2 17.543946 26.503576 69.454502
8526 5 17.527291 26.056689 68.546459
8527 2 6.132502 56.811522 75.050956
8528 2 7.07872 56.801666 73.740815
8529 5 6.876626 56.332728 74.614762
8530 2 11.487525 37.49687 58.759976
8531 2 11.781638 37.850649 60.309245
8532 5 11.41833 38.21178 59.43625
8533 2 19.667908 40.469654 65.582178
8534 2 20.08919 40.777278 64.052542
8535 5 20.398022 40.370094 64.926242
8536 2 32.054663 25.6716 72.658601
8537 2 33.450951 25.817165 73.459281
8538 5 32.44366 25.796437 73.556559
8539 2 6.745574 46.003443 62.450793
8540 2 8.017559 46.612518 61.661504
8541 5 7.148467 46.843395 62.126158
8542 2 14.401792 54.229947 74.59696
8543 2 15.54478 53.133314 74.917695
8544 5 14.697947 53.566247 75.264063
8545 2 18.308831 14.171032 73.562209
8546 2 17.819399 14.096263 72.023781
8547 5 18.465827 14.542754 72.661984
8548 2 29.211094 56.253015 73.968138
8549 2 28.931236 56.173299 72.378415
8550 5 29.237133 55.649128 73.188476
8551 2 4.690122 25.363826 72.477931
8552 2 4.351004 25.27339 70.900364
8553 5 4.626841 24.740762 71.715686
8554 2 7.449015 31.455122 66.669699
8555 2 7.436067 31.624163 68.276918
8556 5 6.966224 31.195032 67.489758
8557 2 3.67308 42.099722 67.809186
8558 2 2.744662 41.025847 67.036705
8559 5 2.780831 41.965927 67.41016
8560 2 19.306749 30.464114 74.860363
8561 2 18.435729 31.267431 75.959409
8562 5 18.763942 30.352665 75.676556
8563 2 7.959288 35.005956 76.170439
8564 2 9.564761 34.821729 76.190756
8565 5 8.813586 35.498812 76.148087
8566 2 29.42701 49.390743 67.061593
8567 2 29.602528 50.663573 66.081291
8568 5 29.928727 50.230855 66.936204
8569 2 15.909983 52.032303 71.990381
8570 2 16.504965 51.69407 73.454448
8571 5 15.841975 51.403073 72.747134
8572 2 7.738569 55.552294 69.491074
8573 2 6.484935 56.549889 69.703448
8574 5 6.952581 55.726586 70.061228
8575 2 16.260101 11.635945 62.848461
8576 2 15.467871 11.92431 61.469653
8577 5 15.361408 11.770364 62.464386
8578 2 8.647741 55.557106 60.262684
8579 2 9.10078 54.008871 60.360763
8580 5 8.579107 54.745326 60.819041
8581 2 25.984518 15.869251 67.649558
8582 2 24.830718 16.821423 68.261124
8583 5 25.543334 16.139819 68.489428
8584 2 33.379105 47.819198 66.192534
8585 2 34.05979 48.877168 67.207059
8586 5 33.933938 48.633927 66.232625
8587 2 31.840933 30.919765 68.466843
8588 2 31.955961 32.200711 67.48815
8589 5 31.31214 31.604173 67.992296
8590 2 30.584564 52.613538 71.23663
8591 2 30.527469 51.139325 71.896428
8592 5 31.142384 51.890523 71.609883
8593 2 26.005286 59.409292 63.750558
8594 2 26.107242 60.841443 63.008639
8595 5 26.434058 60.296574 63.79657
8596 2 4.977112 36.501427 67.80337
8597 2 5.880377 35.937762 69.019219
8598 5 5.129393 36.571155 68.775574
8599 2 9.367254 2.616437 68.00354
8600 2 10.109062 1.400063 67.240617
8601 5 9.39279 1.634098 67.916419
8602 2 13.154642 7.415792 61.955817
8603 2 11.745288 7.887157 61.320655
8604 5 12.732417 7.762825 61.134522
8605 2 17.765927 22.493278 76.205036
8606 2 17.843258 21.396089 75.020936
8607 5 17.635755 21.536776 76.001588
8608 2 30.774033 14.207753 63.511865
8609 2 30.121087 14.481001 64.964756
8610 5 30.632918 14.901173 64.199242
8611 2 32.189981 12.615313 71.807841
8612 2 32.16756 11.820708 70.400718
8613 5 32.707131 11.997382 71.238677
8614 2 14.964125 12.460755 73.772617
8615 2 16.409707 13.027997 73.324929
8616 5 15.440746 13.274423 73.482775
8617 2 10.745852 35.387691 65.653716
8618 2 10.286811 35.421025 67.202931
8619 5 9.982979 35.576553 66.250027
8620 2 1.661828 43.725967 64.106796
8621 2 1.374618 45.058714 64.974661
8622 5 0.942602 44.28509 64.48538
8623 2 29.020398 43.538599 73.539083
8624 2 28.217983 43.789082 72.158762
8625 5 28.557962 43.081176 72.797363
8626 2 11.537296 21.474493 74.067839
8627 2 11.100855 22.014837 75.5271
8628 5 10.9224 21.311119 74.82179
8629 2 24.712426 5.551882 67.782576
8630 2 23.829342 4.674714 68.813418
8631 5 24.25376 4.685676 67.894573
8632 2 6.004114 18.104744 69.024295
8633 2 6.582075 19.344663 69.884793
8634 5 6.368472 19.018558 68.950686
8635 2 11.206846 55.045624 63.457755
8636 2 12.537314 55.107005 62.542341
8637 5 12.162188 54.800982 63.431249
8638 2 1.126629 14.057159 69.740994
8639 2 1.588229 12.917628 68.692047
8640 5 0.947545 13.133141 69.445442
8641 2 14.846536 50.829504 76.172171
8642 2 16.378249 50.87532 75.658703
8643 5 15.410265 50.86096 75.36319
8644 2 19.272975 4.035501 72.916056
8645 2 19.309061 5.35072 71.97755
8646 5 19.769169 4.869815 72.74015
8647 2 9.745275 3.903003 69.985576
8648 2 9.716188 4.455858 71.50393
8649 5 9.205274 4.417872 70.630975
8650 2 2.64906 50.995837 64.148
8651 2 2.877491 51.929846 65.446977
8652 5 2.298717 51.782182 64.629821
8653 2 22.490595 16.788816 70.403363
8654 2 24.006043 16.25783 70.220691
8655 5 23.114426 16.380267 69.757489
8656 2 16.108426 12.149605 66.862225
8657 2 16.355877 12.759568 68.338236
8658 5 16.627551 12.821043 67.365126
8659 2 12.118881 32.36993 67.704837
8660 2 12.360401 33.237157 69.04703
8661 5 12.10815 33.287095 68.06805
8662 2 7.66766 31.37737 70.975808
8663 2 7.776764 32.832212 70.280517
8664 5 8.162235 32.23069 70.997533
8665 2 20.47576 17.997018 71.464234
8666 2 19.789635 18.262353 72.903236
8667 5 19.614887 17.984111 71.945858
8668 2 26.91137 31.467574 76.170132
8669 2 28.220062 31.490301 75.222132
8670 5 27.770064 31.014905 75.994161
8671 2 14.380267 12.068785 58.57179
8672 2 14.161273 12.867867 59.95938
8673 5 13.756395 12.189707 59.326371
8674 2 11.200874 34.665748 63.625286
8675 2 12.251442 33.504367 63.22604
8676 5 11.269182 33.739119 63.293737
8677 2 3.189981 38.647469 76.181003
8678 2 4.654759 38.676277 75.498735
8679 5 3.845994 38.098384 75.689694
8680 2 22.746291 48.605883 64.841478
8681 2 22.729779 48.215036 63.273402
8682 5 23.290759 48.218151 64.11591
8683 2 23.31581 29.302943 71.754775
8684 2 24.453603 30.113772 72.567105
8685 5 23.466703 29.89171 72.531831
8686 2 27.646608 44.292031 62.508002
8687 2 29.130539 44.122925 61.89055
8688 5 28.381067 43.646685 62.376365
8689 2 20.651185 26.93295 75.283108
8690 2 22.098561 26.601161 75.921006
8691 5 21.132298 26.303849 75.87132
8692 2 15.214409 40.25182 64.978956
8693 2 13.817501 39.813469 65.663348
8694 5 14.824245 39.8063 65.767952
8695 2 18.816249 0.983904 71.214865
8696 2 18.286857 1.191891 69.702126
8697 5 18.473094 1.657705 70.581251
8698 2 35.422229 5.420764 70.161424
8699 2 34.707593 6.334409 69.03606
8700 5 35.373708 6.336692 69.798171
8701 2 26.647005 15.124238 64.874308
8702 2 26.594763 14.282106 66.252706
8703 5 27.207684 14.735282 65.586757
8704 2 11.656154 13.285159 62.082734
8705 2 12.42989 13.921272 60.814432
8706 5 12.150229 13.056537 61.260023
8707 2 34.437482 47.033462 70.302284
8708 2 34.478401 45.852449 69.199819
8709 5 34.04794 46.734683 69.446586
8710 2 15.679204 8.488302 64.821911
8711 2 14.465956 7.427363 64.702195
8712 5 14.728092 8.34449 65.040852
8713 2 27.639459 59.31915 62.237823
8714 2 26.494605 59.414419 61.101105
8715 5 27.313287 58.90269 61.405114
8716 2 25.575282 17.202108 71.439712
8717 2 25.962011 17.721405 69.958946
8718 5 26.262474 17.144237 70.73427
8719 2 23.598017 35.635624 71.946165
8720 2 22.972698 35.356706 70.48224
8721 5 23.679033 35.872334 70.991893
8722 2 12.66812 48.282501 61.693731
8723 2 13.646314 49.481023 62.161257
8724 5 12.820985 49.254385 61.620891
8725 2 21.801756 6.532972 64.498838
8726 2 22.955221 5.921466 63.546223
8727 5 22.2684 5.698542 64.255525
8728 2 2.738893 25.911234 73.332313
8729 2 2.476877 25.809873 74.923843
8730 5 2.18954 25.462166 74.017717
8731 2 23.803323 24.377675 72.853413
8732 2 25.303249 23.954124 72.42595
8733 5 24.73392 24.70123 72.803076
8734 2 31.996222 32.668241 69.792098
8735 2 30.815074 33.595142 70.390126
8736 5 31.231053 33.237412 69.539528
8737 2 15.140976 35.423343 62.425461
8738 2 14.724547 35.659594 63.969051
8739 5 14.766175 34.977957 63.221945
8740 2 22.335349 38.740259 68.219344
8741 2 21.729 37.649144 69.245845
8742 5 22.33198 38.458062 69.16464
8743 2 5.565425 16.090396 73.319126
8744 2 5.586019 15.257462 74.703933
8745 5 6.114847 15.88613 74.112625
8746 2 27.365772 46.442895 62.141498
8747 2 26.196247 47.539078 62.347629
8748 5 26.417335 46.635028 61.949707
8749 2 19.483859 11.916734 72.648766
8750 2 17.924955 11.828651 72.231687
8751 5 18.566127 12.069033 72.977101
8752 2 34.907212 1.268717 63.86682
8753 2 34.793942 1.868986 62.370578
8754 5 35.259472 1.965789 63.264131
8755 2 1.675655 33.183064 71.410757
8756 2 2.256226 32.4503 72.729048
8757 5 2.499675 33.018678 71.92767
8758 2 13.565217 51.241905 65.973867
8759 2 13.239596 50.666635 67.448632
8760 5 13.885081 50.62072 66.67032
8761 2 8.895415 16.422731 61.347067
8762 2 10.147708 15.713033 62.081904
8763 5 9.873872 16.303466 61.306707
8764 2 8.759352 51.421145 75.994417
8765 2 7.772277 50.141518 76.005987
8766 5 8.721166 50.45169 76.17311
8767 2 26.629737 31.614263 71.663981
8768 2 26.934769 31.152137 70.145663
8769 5 26.593567 30.844783 71.047684
8770 2 30.723542 15.834481 69.482264
8771 2 31.182063 16.442411 70.907773
8772 5 31.366756 16.446307 69.912584
8773 2 25.116081 39.876706 64.784179
8774 2 25.484533 39.402731 66.284675
8775 5 25.868673 39.707075 65.399046
8776 2 14.428579 54.047908 62.909606
8777 2 15.153767 54.617655 64.236779
8778 5 15.277461 54.043794 63.412212
8779 2 18.191214 41.76889 73.485031
8780 2 19.688672 42.092598 73.99955
8781 5 18.704385 42.242436 74.181911
8782 2 24.088957 8.616993 72.866145
8783 2 24.810035 7.197918 72.586557
8784 5 24.96089 8.194353 72.680834
8785 2 25.916801 58.119568 65.575504
8786 2 24.839784 57.680085 64.453549
8787 5 24.954567 57.971553 65.416045
8788 2 17.685397 12.535401 61.43156
8789 2 18.418653 11.509851 62.442737
8790 5 18.565361 12.268297 61.788701
8791 2 2.202154 44.056119 68.961217
8792 2 1.005516 45.086738 68.618031
8793 5 1.962394 45.012822 68.939665
8794 2 3.917926 7.002052 70.76566
8795 2 4.139368 7.273032 72.343452
8796 5 3.502376 7.399813 71.567118
8797 2 12.527734 23.039243 68.591571
8798 2 12.74195 22.42316 67.112906
8799 5 12.450926 22.212289 68.059144
8800 2 7.314097 27.929507 60.907334
8801 2 6.925282 28.155188 62.459683
8802 5 7.476974 27.595976 61.821369
8803 2 10.009387 19.83289 76.171496
8804 2 9.889198 18.22123 76.171344
8805 5 9.477575 19.078185 75.823894
8806 2 12.992713 49.034589 65.434607
8807 2 11.638881 49.882749 65.678857
8808 5 12.367475 49.668446 65.009714
8809 2 12.906042 23.010056 72.946185
8810 2 14.422626 22.980611 72.388511
8811 5 13.846125 22.876783 73.213977
8812 2 34.695565 8.779743 61.799555
8813 2 33.776556 8.546498 60.490771
8814 5 33.878634 9.087564 61.340097
8815 2 21.610365 22.279739 75.018932
8816 2 21.861706 21.196397 73.846288
8817 5 21.577952 21.31603 74.810497
8818 2 9.430343 55.28311 68.010303
8819 2 8.885476 54.466406 66.726554
8820 5 8.609834 54.980923 67.553489
8821 2 24.528861 45.931404 63.270434
8822 2 23.3336 46.336574 62.260937
8823 5 24.181988 46.662675 62.706384
8824 2 9.95553 29.661068 74.550219
8825 2 8.797423 29.938399 73.457622
8826 5 9.271498 30.314034 74.269212
8827 2 33.400884 40.438748 75.731385
8828 2 34.63449 39.439011 76.03245
8829 5 34.260639 40.362876 76.209189
8830 2 6.746762 42.8026 66.678875
8831 2 6.52175 43.542355 68.098039
8832 5 6.066538 43.021708 67.358962
8833 2 31.45923 52.890332 73.54242
8834 2 29.9011 53.190032 73.235327
8835 5 30.628492 53.247447 73.936849
8836 2 17.276192 36.493664 66.108336
8837 2 16.867081 38.037555 66.355163
8838 5 16.543103 37.14544 66.003459
8839 2 3.68094 11.073239 59.377151
8840 2 4.715444 11.522582 60.534643
8841 5 4.288864 11.79734 59.658821
8842 2 13.360851 28.857837 73.9473
8843 2 14.784569 29.540894 73.603272
8844 5 14.184703 28.747415 73.415977
8845 2 34.397602 29.783832 76.172924
8846 2 35.413607 29.282161 75.020555
8847 5 34.675604 29.939463 75.239262
8848 2 2.093546 29.11338 70.981297
8849 2 1.269366 30.487486 70.770452
8850 5 1.223119 29.479151 70.695291
8851 2 23.008803 14.349087 70.655599
8852 2 21.810475 15.003785 71.52005
8853 5 22.814083 14.887189 71.459192
8854 2 1.025295 48.488391 63.979179
8855 2 0.981346 49.748354 62.968013
8856 5 1.585854 49.169044 63.536781
8857 2 7.872425 8.882498 61.334316
8858 2 7.404756 8.558616 59.82161
8859 5 7.109109 8.938772 60.711892
8860 2 29.450233 32.32869 58.53664
8861 2 28.115542 33.163791 58.90147
8862 5 28.830352 32.550054 59.271471
8863 2 35.434063 40.991747 71.7486
8864 2 35.267762 41.002974 70.141082
8865 5 34.806394 41.207039 71.018592
8866 2 24.975182 2.377607 69.882402
8867 2 23.714058 1.750881 69.089512
8868 5 24.630953 1.550803 69.468721
8869 2 18.35469 38.030017 72.639231
8870 2 18.529211 37.520137 71.115597
8871 5 18.059358 37.344055 71.994665
8872 2 6.080497 33.737581 75.722796
8873 2 6.14503 33.894776 74.115618
8874 5 6.204315 34.392158 74.995177
8875 2 7.966172 15.709943 71.178911
8876 2 6.833143 16.060011 70.080916
8877 5 7.004474 15.898248 71.065296
8878 2 16.057562 54.282209 71.261208
8879 2 16.092923 55.594734 72.203504
8880 5 16.36699 55.217929 71.304932
8881 2 22.944049 24.621198 67.986231
8882 2 23.523553 26.052159 68.464165
8883 5 23.768641 25.093432 68.251324
8884 2 26.955228 38.384049 67.563893
8885 2 26.6243 39.843465 68.17421
8886 5 27.368417 39.213825 67.9015
8887 2 25.325551 34.054215 62.865353
8888 2 24.371077 35.119385 63.617874
8889 5 24.442166 34.164238 63.290507
8890 2 0.999822 32.646405 63.788639
8891 2 1.647089 33.498884 62.577763
8892 5 1.542778 32.57097 62.968432
8893 2 3.12504 20.531599 74.274289
8894 2 3.519772 21.453383 73.006853
8895 5 3.048964 21.442339 73.902813
8896 2 16.319139 33.592991 70.426952
8897 2 15.86799 33.349072 71.959553
8898 5 15.910493 32.934337 71.03721
8899 2 27.375486 30.393422 73.335046
8900 2 28.980511 30.579279 73.370373
8901 5 28.215613 29.970352 73.632417
8902 2 25.37421 44.091745 65.219658
8903 2 24.680974 43.119564 64.130537
8904 5 24.503522 43.79543 64.862824
8905 2 7.942123 56.794528 71.706245
8906 2 8.550931 58.180847 72.271372
8907 5 8.754246 57.206918 72.085219
8908 2 31.675634 58.622195 62.856203
8909 2 30.267398 58.459055 63.632186
8910 5 30.69736 58.680507 62.743019
8911 2 8.052698 53.502516 72.738225
8912 2 7.228963 54.873651 72.50726
8913 5 8.121574 54.485522 72.78498
8914 2 12.933054 29.726497 60.355005
8915 2 12.222824 29.646677 61.804521
8916 5 12.399979 29.142482 60.944911
8917 2 12.470674 47.153057 72.188323
8918 2 11.568921 45.831967 72.419527
8919 5 12.419897 46.306918 72.693001
8920 2 20.621824 35.753764 69.100642
8921 2 21.726086 35.88817 67.928278
8922 5 21.526643 35.47025 68.82833
8923 2 1.570787 53.835563 61.079542
8924 2 2.639742 53.999524 59.878565
8925 5 2.253099 53.353374 60.55497
8926 2 21.864959 31.06173 62.111142
8927 2 21.854252 32.116502 63.335576
8928 5 21.298866 31.442737 62.823605
8929 2 2.962935 52.757863 68.446405
8930 2 3.675632 53.424354 67.158092
8931 5 3.670753 52.620445 67.773099
8932 2 13.787699 42.005677 63.186175
8933 2 14.186413 41.737463 61.643131
8934 5 13.662349 41.381519 62.432553
8935 2 5.7499 40.396833 60.58352
8936 2 5.279034 41.357758 59.372403
8937 5 5.889404 40.591322 59.62647
8938 2 9.078834 5.291848 62.197431
8939 2 8.011619 4.662633 61.159628
8940 5 8.688239 4.443446 61.879814
8941 2 1.939139 46.329251 70.704332
8942 2 1.683899 47.302862 71.96878
8943 5 1.341652 47.031201 71.055766
8944 2 13.416483 2.641993 67.48563
8945 2 11.805995 2.776687 67.494736
8946 5 12.63003 2.783028 66.906983
8947 2 11.893236 40.170563 62.949569
8948 2 13.249216 39.535732 63.558013
8949 5 12.59205 39.492903 62.789361
8950 2 7.197014 53.577336 70.460076
8951 2 8.127513 52.834785 69.367059
8952 5 7.659087 52.729435 70.258129
8953 2 19.933426 52.273695 63.105934
8954 2 20.197519 52.277447 61.511526
8955 5 19.485814 52.21649 62.228664
8956 2 4.955975 20.810731 70.540466
8957 2 5.466943 21.285235 71.998428
8958 5 5.763821 21.006608 71.071736
8959 2 10.702465 47.479196 70.922611
8960 2 10.082212 46.898514 69.547842
8961 5 10.745235 47.555159 69.939946
8962 2 32.305553 6.789832 69.890714
8963 2 31.27622 7.957727 69.456676
8964 5 31.349628 7.03144 69.858086
8965 2 18.645635 27.736582 61.470321
8966 2 18.645559 28.166961 59.912544
8967 5 19.203282 28.126953 60.756268
8968 2 10.80388 32.777116 61.086813
8969 2 11.475129 31.751371 62.139983
8970 5 11.666776 32.419296 61.403998
8971 2 29.471181 19.094018 64.02949
8972 2 29.994301 18.559572 65.462183
8973 5 30.176874 19.210578 64.708933
8974 2 8.110668 41.436387 68.196702
8975 2 8.355244 42.525334 69.365579
8976 5 7.721464 41.81582 69.019977
8977 2 27.43856 54.761332 68.436229
8978 2 26.114099 55.041555 67.553522
8979 5 26.477053 54.973855 68.49597
8980 2 5.419517 50.050357 70.109949
8981 2 7.007559 49.816575 70.297997
8982 5 6.101988 49.364413 70.302162
8983 2 26.555086 28.583548 64.082173
8984 2 25.395172 29.559048 64.643327
8985 5 26.054501 28.833367 64.894722
8986 2 25.378776 28.71163 67.810542
8987 2 26.287133 29.810685 67.049713
8988 5 25.855404 29.566776 67.932122
8989 2 25.012534 6.943943 63.696122
8990 2 25.458161 5.792226 62.653596
8991 5 25.153952 5.972147 63.602075
8992 2 1.001703 26.566159 70.699983
8993 2 1.000802 26.771862 72.302974
8994 5 1.006438 27.25011 71.410912
8995 2 13.764373 60.672477 73.511805
8996 2 13.969053 61.280603 72.028503
8997 5 14.351582 61.246432 72.965003
8998 2 30.455689 31.664629 65.893547
8999 2 30.677712 31.08615 64.40091
9000 5 30.774279 30.880186 65.387207
9001 2 35.414042 55.554652 63.953038
9002 2 34.653459 54.135932 63.809362
9003 5 34.974346 54.953453 63.306154
9004 2 2.006758 43.961017 66.772579
9005 2 1.033883 42.790461 66.229246
9006 5 1.064322 43.673686 66.722719
9007 2 5.771517 24.664162 64.684591
9008 2 5.193494 23.954106 63.352823
9009 5 4.954921 24.288736 64.277827
9010 2 32.04867 22.285651 62.953219
9011 2 31.447635 23.045901 64.246537
9012 5 31.216765 22.460311 63.453877
9013 2 10.598293 29.585311 65.445692
9014 2 10.324535 28.749382 66.801485
9015 5 10.105874 28.814525 65.815346
9016 2 27.139742 54.26557 63.440215
9017 2 25.739944 53.661324 63.976263
9018 5 26.559875 53.467848 63.415187
9019 2 30.035873 35.095801 60.605608
9020 2 28.767354 34.263312 61.16213
9021 5 29.353494 34.429333 60.353796
9022 2 28.486815 27.843442 76.172387
9023 2 27.140978 28.180931 75.343701
9024 5 27.960791 28.581173 75.782154
9025 2 22.908275 46.020149 64.754318
9026 2 22.560358 44.899094 65.865212
9027 5 23.285347 45.509209 65.509293
9028 2 20.56449 4.725613 74.858438
9029 2 20.90575 3.158222 74.661656
9030 5 20.681545 3.873587 75.341739
9031 2 25.105678 24.801394 62.910978
9032 2 26.396513 25.491703 63.595897
9033 5 25.38609 25.434606 63.613575
9034 2 4.359645 3.448264 62.808303
9035 2 4.537755 4.842173 63.606544
9036 5 3.872047 4.239145 63.139944
9037 2 27.508844 22.851735 74.786706
9038 2 28.124921 23.14254 73.321176
9039 5 27.926441 22.42152 74.003278
9040 2 24.888385 32.857369 72.17427
9041 2 23.540163 32.589438 73.024214
9042 5 24.104284 32.263448 72.249602
9043 2 3.171579 5.24517 71.858619
9044 2 2.345538 4.347733 70.798356
9045 5 2.424751 4.606201 71.773777
9046 2 8.953435 42.476322 72.47306
9047 2 8.265333 43.792359 71.835519
9048 5 9.018395 43.459495 72.42427
9049 2 8.627378 25.911853 73.362024
9050 2 8.806648 26.850658 74.665252
9051 5 8.834412 25.897252 74.326469
9052 2 3.202058 47.82684 62.883693
9053 2 2.596141 48.622577 61.61422
9054 5 3.329022 48.621006 62.312368
9055 2 2.928485 56.110879 68.254331
9056 2 2.066828 54.746072 68.172207
9057 5 2.984186 55.131396 68.357966
9058 2 22.808265 10.187433 71.089092
9059 2 22.554727 10.183086 72.685211
9060 5 22.10429 10.21913 71.779488
9061 2 15.677015 54.204773 66.401761
9062 2 16.101692 53.319425 67.685391
9063 5 15.325744 53.764382 67.211635
9064 2 18.479021 50.799992 73.070067
9065 2 18.029932 50.726637 71.519315
9066 5 17.892583 50.322051 72.436905
9067 2 23.015046 19.317783 73.362711
9068 2 22.320195 19.105542 71.919093
9069 5 22.14429 19.221586 72.909103
9070 2 16.446876 18.006671 73.326761
9071 2 15.189474 18.483234 72.430255
9072 5 15.589299 17.706925 72.942126
9073 2 12.536342 55.273383 75.280368
9074 2 12.605987 56.735211 74.594727
9075 5 12.079424 56.146107 75.227351
9076 2 17.310745 31.352891 60.401015
9077 2 17.941292 32.787384 60.005369
9078 5 17.253896 32.090336 59.748195
9079 2 26.073184 12.34123 73.270132
9080 2 27.612612 11.854846 73.196053
9081 5 26.682358 11.70458 72.826493
9082 2 4.15211 10.297099 68.021022
9083 2 4.452989 10.705249 66.486493
9084 5 4.875503 10.513138 67.385994
9085 2 4.374279 56.42222 71.55752
9086 2 4.538192 56.062901 73.124657
9087 5 5.038787 56.230773 72.261088
9088 2 6.404882 35.341536 71.893475
9089 2 7.136739 34.924282 70.514279
9090 5 6.288662 34.829072 71.058547
9091 2 13.185236 21.600336 71.204853
9092 2 12.489545 20.984224 69.882615
9093 5 12.625621 21.827956 70.424949
9094 2 4.711053 49.817869 73.71617
9095 2 3.733657 50.768444 74.583925
9096 5 3.850112 50.299068 73.694739
9097 2 11.202382 48.161449 63.41799
9098 2 11.127793 47.852522 65.002571
9099 5 11.4936 47.5283 64.116235
9100 2 34.794812 16.159021 71.192595
9101 2 35.097647 14.862538 72.108738
9102 5 35.465783 15.460432 71.37968
9103 1 9.683988 3.810857 26.062562
9104 1 0.449084 19.380626 26.062562
9105 1 0.449009 9.132604 33.44716
9106 1 9.420805 24.702373 33.44716
9107 1 9.421099 14.453728 40.83253
9108 1 0.186195 30.023497 40.83253
9109 1 9.421025 4.205706 48.217128
9110 1 0.18612 19.775475 48.217128
9111 1 0.186051 9.52683 55.601726
9112 1 9.157846 25.0966 55.601726
9113 1 4.95065 1.522101 22.204728
9114 1 13.922446 17.09187 22.204728
9115 1 13.922735 6.843848 29.590098
9116 1 4.687831 22.413617 29.590098
9117 1 4.687761 12.164972 36.974697
9118 1 13.659557 27.734741 36.974697
9119 1 4.687686 1.91695 44.359295
9120 1 13.659482 17.486719 44.359295
9121 1 13.659412 7.238074 51.744665
9122 1 4.424508 22.807844 51.744665
9123 1 14.176986 1.015772 21.92768
9124 1 4.942081 16.585541 21.92768
9125 1 4.942012 6.336896 29.312279
9126 1 13.913807 21.906665 29.312279
9127 1 13.914097 11.658643 36.696877
9128 1 4.679192 27.228412 36.696877
9129 1 13.914027 1.409998 44.081475
9130 1 4.679123 16.979768 44.081475
9131 1 4.679048 6.731745 51.466845
9132 1 13.650844 22.301515 51.466845
9133 1 0.076726 3.891197 25.662038
9134 1 9.048522 19.460966 25.662038
9135 1 9.048452 9.212321 33.046637
9136 1 -0.186452 24.78209 33.046637
9137 1 36.226873 14.534068 40.431235
9138 1 8.785269 30.103837 40.431235
9139 1 36.227168 4.285423 47.816605
9140 1 8.785564 19.855193 47.816605
9141 1 8.785489 9.60717 55.201203
9142 1 17.757284 25.17694 55.201203
9143 1 9.417489 8.976906 21.242392
9144 1 0.182584 24.546675 21.242392
9145 1 0.182509 14.298653 28.62699
9146 1 9.154305 29.868423 28.62699
9147 1 0.182804 4.050008 36.011589
9148 1 9.1546 19.619778 36.011589
9149 1 9.154525 9.371755 43.396959
9150 1 -0.080379 24.941525 43.396959
9151 1 18.126251 14.69288 50.781557
9152 1 8.891347 30.262649 50.781557
9153 1 13.849153 11.587645 25.533161
9154 1 4.614248 27.157414 25.533161
9155 1 13.849078 1.339623 32.917759
9156 1 4.614173 16.909392 32.917759
9157 1 4.614104 6.660747 40.303129
9158 1 13.585899 22.230517 40.303129
9159 1 13.585825 11.982494 47.687727
9160 1 4.35092 27.552264 47.687727
9161 1 13.586119 1.73385 55.072326
9162 1 4.351215 17.303619 55.072326
9163 1 4.484464 11.962565 25.856512
9164 1 13.456259 27.532334 25.856512
9165 1 4.484394 1.71392 33.24111
9166 1 13.45619 17.283689 33.24111
9167 1 13.456479 7.035667 40.625709
9168 1 4.221575 22.605437 40.625709
9169 1 4.221505 12.356792 48.011079
9170 1 13.193301 27.926561 48.011079
9171 1 4.22143 2.10877 55.395677
9172 1 13.193226 17.678539 55.395677
9173 1 -0.038462 8.86169 22.064275
9174 1 8.933334 24.431459 22.064275
9175 1 8.933628 14.182814 29.449645
9176 1 36.112124 29.752583 29.449645
9177 1 8.933553 3.934792 36.834243
9178 1 36.112049 19.504561 36.834243
9179 1 17.905279 9.255916 44.218842
9180 1 8.670375 24.825686 44.218842
9181 1 8.6703 14.577664 51.60344
9182 1 17.642096 30.147433 51.60344
9183 4 9.738665 3.330062 24.824721
9184 4 0.503761 18.899831 24.824721
9185 4 0.50405 8.651809 32.209319
9186 4 9.475846 24.221579 32.209319
9187 4 9.475776 13.972934 39.593918
9188 4 0.240872 29.542703 39.593918
9189 4 9.475702 3.724912 46.979288
9190 4 0.240797 19.294681 46.979288
9191 4 0.240728 9.046036 54.363886
9192 4 9.212523 24.615805 54.363886
9193 4 8.89696 4.774937 26.445335
9194 4 36.075456 20.344706 26.445335
9195 4 36.075386 10.096061 33.829933
9196 4 8.633782 25.66583 33.829933
9197 4 8.634071 15.417808 41.214532
9198 4 35.812567 30.987578 41.214532
9199 4 8.634001 5.169163 48.599902
9200 4 35.812497 20.738933 48.599902
9201 4 35.812422 10.490911 55.9845
9202 4 8.370818 26.06068 55.9845
9203 4 4.100591 0.809628 21.511723
9204 4 13.072386 16.379397 21.511723
9205 4 13.072317 6.130752 28.896321
9206 4 3.837413 21.700522 28.896321
9207 4 3.837338 11.452499 36.280919
9208 4 12.809133 27.022269 36.280919
9209 4 3.837268 1.203855 43.666289
9210 4 12.809064 16.773624 43.666289
9211 4 12.809353 6.525602 51.050888
9212 4 3.574449 22.095371 51.050888
9213 4 6.17559 1.04878 22.529623
9214 4 15.147386 16.618549 22.529623
9215 4 15.147316 6.369904 29.914221
9216 4 5.912412 21.939673 29.914221
9217 4 5.912701 11.691651 37.298819
9218 4 14.884497 27.26142 37.298819
9219 4 5.912632 1.443006 44.684189
9220 4 14.884428 17.012775 44.684189
9221 4 14.884353 6.764753 52.068788
9222 4 5.649448 22.334523 52.068788
9223 4 14.077696 1.130988 23.225715
9224 4 4.842792 16.700757 23.225715
9225 4 4.843086 6.452112 30.611085
9226 4 13.814882 22.021882 30.611085
9227 4 13.814807 11.773859 37.995683
9228 4 4.579903 27.343629 37.995683
9229 4 13.814737 1.525215 45.380282
9230 4 4.579833 17.094984 45.380282
9231 4 4.579758 6.846962 52.765652
9232 4 13.551554 22.416731 52.765652
9233 4 13.169731 1.152163 21.088048
9234 4 3.934827 16.721932 21.088048
9235 4 3.934757 6.473287 28.472646
9236 4 12.906553 22.043056 28.472646
9237 4 12.906478 11.795034 35.857245
9238 4 3.671574 27.364804 35.857245
9239 4 12.906408 1.546389 43.242615
9240 4 3.671504 17.116159 43.242615
9241 4 3.671429 6.868137 50.627213
9242 4 12.643225 22.437906 50.627213
9243 4 36.088866 2.984413 26.541029
9244 4 8.647261 18.554183 26.541029
9245 4 8.647192 8.305538 33.926399
9246 4 35.825687 23.875307 33.926399
9247 4 35.825977 13.627285 41.310997
9248 4 8.384372 29.197054 41.310997
9249 4 35.825907 3.37864 48.695595
9250 4 8.384303 18.948409 48.695595
9251 4 8.384228 8.700387 56.080965
9252 4 17.356024 24.270156 56.080965
9253 4 0.753533 3.560495 24.607096
9254 4 9.725328 19.130264 24.607096
9255 4 9.725623 8.881619 31.991694
9256 4 0.490719 24.451388 31.991694
9257 4 0.490644 14.203366 39.376292
9258 4 9.462439 29.773136 39.376292
9259 4 0.490574 3.954721 46.761662
9260 4 9.46237 19.524491 46.761662
9261 4 9.462295 9.276469 54.146261
9262 4 18.434091 24.846238 54.146261
9263 4 9.539633 9.90611 22.120611
9264 4 0.304729 25.475879 22.120611
9265 4 0.304659 15.227234 29.505209
9266 4 9.276455 30.797004 29.505209
9267 4 0.304585 4.979212 36.889807
9268 4 9.27638 20.548981 36.889807
9269 4 9.276675 10.300337 44.275177
9270 4 0.04177 25.870106 44.275177
9271 4 18.248396 15.622084 51.659775
9272 4 9.013491 31.191853 51.659775
9273 4 8.887793 7.799209 21.4523
9274 4 36.066288 23.368978 21.4523
9275 4 36.066214 13.120956 28.836899
9276 4 8.624609 28.690725 28.836899
9277 4 36.066144 2.872311 36.221497
9278 4 8.62454 18.44208 36.221497
9279 4 8.624829 8.194058 43.606867
9280 4 35.803325 23.763827 43.606867
9281 4 17.59655 13.515805 50.991465
9282 4 8.361646 29.085575 50.991465
9283 4 14.971017 11.763895 26.181407
9284 4 5.736112 27.333664 26.181407
9285 4 14.970947 1.51525 33.566005
9286 4 5.736043 17.085019 33.566005
9287 4 5.736332 6.836997 40.951375
9288 4 14.708128 22.406766 40.951375
9289 4 14.708058 12.158121 48.335973
9290 4 5.473154 27.727891 48.335973
9291 4 14.707983 1.910099 55.720571
9292 4 5.473079 17.479869 55.720571
9293 4 12.92975 10.678371 25.84648
9294 4 3.694846 26.24814 25.84648
9295 4 12.929675 0.430348 33.231078
9296 4 3.694771 16.000118 33.231078
9297 4 3.694701 5.751473 40.615676
9298 4 12.666497 21.321242 40.615676
9299 4 12.666422 11.07322 48.001046
9300 4 3.431518 26.642989 48.001046
9301 4 12.666353 0.824575 55.385644
9302 4 3.431448 16.394344 55.385644
9303 4 5.51914 12.071553 25.121834
9304 4 14.490936 27.641323 25.121834
9305 4 5.519065 1.823531 32.506432
9306 4 14.490861 17.393301 32.506432
9307 4 14.490791 7.144656 39.89103
9308 4 5.255887 22.714425 39.89103
9309 4 5.256176 12.466403 47.2764
9310 4 14.227972 28.036172 47.2764
9311 4 5.256107 2.217758 54.660998
9312 4 14.227902 17.787527 54.660998
9313 4 4.287982 12.505016 27.051136
9314 4 13.259777 28.074785 27.051136
9315 4 4.287912 2.256371 34.435734
9316 4 13.259708 17.82614 34.435734
9317 4 13.259633 7.578118 41.821104
9318 4 4.024729 23.147887 41.821104
9319 4 4.024654 12.899865 49.205703
9320 4 12.99645 28.469634 49.205703
9321 4 4.024584 2.65122 56.590301
9322 4 12.99638 18.22099 56.590301
9323 4 35.459493 9.46642 22.759596
9324 4 8.017889 25.036189 22.759596
9325 4 8.017814 14.788167 30.144966
9326 4 35.19631 30.357936 30.144966
9327 4 8.017745 4.539522 37.529564
9328 4 35.19624 20.109291 37.529564
9329 4 16.989466 9.861269 44.914162
9330 4 7.754561 25.431038 44.914162
9331 4 7.754856 15.182393 52.299532
9332 4 16.726651 30.752163 52.299532
9333 4 1.228648 9.215435 21.928452
9334 4 10.200444 24.785204 21.928452
9335 4 10.200739 14.536559 29.31305
9336 4 0.965834 30.106329 29.31305
9337 4 10.200664 4.288537 36.69842
9338 4 0.96576 19.858306 36.69842
9339 4 19.17239 9.609662 44.083019
9340 4 9.937486 25.179431 44.083019
9341 4 9.937411 14.931409 51.467617
9342 4 18.909207 30.501178 51.467617
9343 2 9.123083 3.741104 24.111651
9344 2 -0.111821 19.310873 24.111651
9345 2 36.301504 9.062851 31.496249
9346 2 8.8599 24.632621 31.496249
9347 2 8.85983 14.383976 38.881619
9348 2 36.038326 29.953745 38.881619
9349 2 8.860119 4.135954 46.266217
9350 2 36.038615 19.705723 46.266217
9351 2 36.038545 9.457078 53.650816
9352 2 8.596941 25.026847 53.650816
9353 2 8.484818 5.414543 25.741526
9354 2 35.663314 20.984312 25.741526
9355 2 35.663244 10.735667 33.126896
9356 2 8.22164 26.305437 33.126896
9357 2 8.221565 16.057414 40.511494
9358 2 35.400061 31.627184 40.511494
9359 2 8.221495 5.80877 47.896092
9360 2 35.399991 21.378539 47.896092
9361 2 35.40028 11.130517 55.281462
9362 2 7.958676 26.700286 55.281462
9363 2 10.217606 3.274634 26.81962
9364 2 0.982701 18.844403 26.81962
9365 2 0.982632 8.595758 34.204218
9366 2 9.954428 24.165527 34.204218
9367 2 9.954353 13.917505 41.588816
9368 2 0.719448 29.487275 41.588816
9369 2 9.954647 3.66886 48.974186
9370 2 0.719743 19.23863 48.974186
9371 2 0.719668 8.990608 56.358785
9372 2 9.691464 24.560377 56.358785
9373 2 10.352292 2.590187 24.66266
9374 2 1.117388 18.159956 24.66266
9375 2 1.117318 7.911311 32.047258
9376 2 10.089114 23.48108 32.047258
9377 2 10.089403 13.233058 39.432628
9378 2 0.854499 28.802828 39.432628
9379 2 10.089334 2.984413 46.817226
9380 2 0.85443 18.554183 46.817226
9381 2 0.854355 8.30616 54.201824
9382 2 9.82615 23.87593 54.201824
9383 2 8.719979 4.948695 27.497963
9384 2 35.898475 20.518465 27.497963
9385 2 35.898405 10.26982 34.882561
9386 2 8.456801 25.839589 34.882561
9387 2 8.456726 15.591567 42.267159
9388 2 35.635222 31.161336 42.267159
9389 2 8.456656 5.342922 49.652529
9390 2 35.635152 20.912691 49.652529
9391 2 35.635441 10.664669 57.037127
9392 2 8.193837 26.234438 57.037127
9393 2 3.894436 62.185036 21.143612
9394 2 13.392449 15.475728 21.143612
9395 2 13.392743 5.227083 28.52821
9396 2 4.157839 20.796852 28.52821
9397 2 4.157764 10.54883 35.91358
9398 2 13.12956 26.118599 35.91358
9399 2 4.157695 0.300185 43.298178
9400 2 13.12949 15.869954 43.298178
9401 2 13.129415 5.621932 50.682777
9402 2 3.894511 21.191702 50.682777
9403 2 6.222925 0.05792 22.426984
9404 2 15.194721 15.627689 22.426984
9405 2 15.19501 5.379667 29.811582
9406 2 5.960106 20.949436 29.811582
9407 2 5.960036 10.700791 37.196952
9408 2 14.931832 26.27056 37.196952
9409 2 5.959961 0.452769 44.58155
9410 2 14.931757 16.022538 44.58155
9411 2 14.931687 5.773893 51.966149
9412 2 5.696783 21.343662 51.966149
9413 2 4.718361 2.466874 22.550459
9414 2 13.690156 18.036643 22.550459
9415 2 13.690451 7.787999 29.935058
9416 2 4.455547 23.357768 29.935058
9417 2 4.455472 13.109746 37.319656
9418 2 13.427267 28.679515 37.319656
9419 2 4.455402 2.861101 44.705026
9420 2 13.427198 18.43087 44.705026
9421 2 13.427123 8.182848 52.089624
9422 2 4.192219 23.752617 52.089624
9423 2 3.31195 1.23188 21.049462
9424 2 12.283746 16.801649 21.049462
9425 2 12.283676 6.553004 28.43406
9426 2 3.048772 22.122774 28.43406
9427 2 3.048697 11.874752 35.81943
9428 2 12.020493 27.444521 35.81943
9429 2 3.048627 1.626107 43.204028
9430 2 12.020423 17.195876 43.204028
9431 2 12.020348 6.947854 50.588627
9432 2 2.785444 22.517623 50.588627
9433 2 6.53665 1.369517 23.402439
9434 2 15.508446 16.939286 23.402439
9435 2 15.508376 6.690641 30.787809
9436 2 6.273472 22.26041 30.787809
9437 2 6.273397 12.012388 38.172408
9438 2 15.245193 27.582158 38.172408
9439 2 6.273328 1.763743 45.557006
9440 2 15.245123 17.333513 45.557006
9441 2 15.245413 7.085491 52.941604
9442 2 6.010508 22.65526 52.941604
9443 2 12.225636 1.31222 21.511723
9444 2 2.990731 16.881989 21.511723
9445 2 2.990662 6.633344 28.896321
9446 2 11.962458 22.203114 28.896321
9447 2 11.962383 11.955092 36.281691
9448 2 2.727478 27.524861 36.281691
9449 2 11.962313 1.706447 43.666289
9450 2 2.727409 17.276216 43.666289
9451 2 2.727334 7.028194 51.050888
9452 2 11.69913 22.597963 51.050888
9453 2 13.309209 1.322808 20.111049
9454 2 4.074305 16.892577 20.111049
9455 2 4.074235 6.643932 27.495648
9456 2 13.046031 22.213701 27.495648
9457 2 13.04632 11.965679 34.880246
9458 2 3.811416 27.535448 34.880246
9459 2 13.046251 1.717034 42.265616
9460 2 3.811346 17.286803 42.265616
9461 2 3.811271 7.038781 49.650214
9462 2 12.783067 22.608551 49.650214
9463 2 15.187306 0.86132 21.536418
9464 2 5.952402 16.431089 21.536418
9465 2 5.952332 6.182444 28.921016
9466 2 14.924128 21.752213 28.921016
9467 2 14.924053 11.504191 36.305614
9468 2 5.689149 27.07396 36.305614
9469 2 14.923983 1.255546 43.690984
9470 2 5.689079 16.825315 43.690984
9471 2 5.689368 6.577293 51.075583
9472 2 14.661164 22.147063 51.075583
9473 2 13.22975 1.375122 23.694922
9474 2 3.994846 16.944891 23.694922
9475 2 3.994776 6.696246 31.080292
9476 2 12.966572 22.266016 31.080292
9477 2 12.966497 12.017993 38.46489
9478 2 3.731593 27.587763 38.46489
9479 2 12.966427 1.769349 45.849488
9480 2 3.731523 17.339118 45.849488
9481 2 3.731812 7.091096 53.234086
9482 2 12.703608 22.660865 53.234086
9483 2 14.944676 1.047534 23.774409
9484 2 5.709772 16.617303 23.774409
9485 2 5.710066 6.368658 31.159007
9486 2 14.681862 21.938428 31.159007
9487 2 14.681787 11.690406 38.544377
9488 2 5.446883 27.260175 38.544377
9489 2 14.681717 1.441761 45.928975
9490 2 5.446813 17.01153 45.928975
9491 2 5.446738 6.763508 53.313574
9492 2 14.418534 22.333277 53.313574
9493 2 0.002319 2.052718 26.635179
9494 2 8.974115 17.622488 26.635179
9495 2 8.97404 7.374466 34.020549
9496 2 36.152536 22.944235 34.020549
9497 2 36.15283 12.69559 41.405147
9498 2 8.711226 28.265359 41.405147
9499 2 36.152755 2.447568 48.789745
9500 2 8.711151 18.017337 48.789745
9501 2 8.711081 7.768692 56.175115
9502 2 17.682877 23.338461 56.175115
9503 2 1.290816 4.271099 24.136346
9504 2 10.262612 19.840868 24.136346
9505 2 10.262901 9.592846 31.520944
9506 2 1.027997 25.162615 31.520944
9507 2 1.027927 14.913971 38.905542
9508 2 9.999723 30.48374 38.905542
9509 2 1.027853 4.665948 46.290912
9510 2 9.999648 20.235718 46.290912
9511 2 9.999579 9.987073 53.675511
9512 2 18.971374 25.556842 53.675511
9513 2 36.161275 4.930012 25.765449
9514 2 8.719671 20.499781 25.765449
9515 2 8.71996 10.251759 33.150819
9516 2 35.898456 25.821528 33.150819
9517 2 35.898386 15.572883 40.535417
9518 2 8.456782 31.142652 40.535417
9519 2 35.898311 5.324861 47.920015
9520 2 8.456707 20.89463 47.920015
9521 2 8.456638 10.645985 55.305385
9522 2 17.428433 26.215755 55.305385
9523 2 1.148685 2.647484 24.412622
9524 2 10.120481 18.217253 24.412622
9525 2 10.120406 7.969231 31.797992
9526 2 0.885502 23.539 31.797992
9527 2 0.885432 13.290355 39.18259
9528 2 9.857228 28.860124 39.18259
9529 2 0.885358 3.042333 46.567189
9530 2 9.857153 18.612102 46.567189
9531 2 9.857448 8.363457 53.952559
9532 2 18.829244 23.933226 53.952559
9533 2 35.694522 3.327571 27.386063
9534 2 8.252918 18.89734 27.386063
9535 2 8.252848 8.648695 34.770661
9536 2 35.431344 24.218465 34.770661
9537 2 35.431633 13.970443 42.156031
9538 2 7.990029 29.540212 42.156031
9539 2 35.431564 3.721798 49.54063
9540 2 7.989959 19.291567 49.54063
9541 2 7.989884 9.043545 56.925228
9542 2 16.96168 24.613314 56.925228
9543 2 9.869227 10.761824 21.74787
9544 2 0.634323 26.331594 21.74787
9545 2 0.634248 16.083572 29.133239
9546 2 9.606044 31.653341 29.133239
9547 2 0.634178 5.834927 36.517838
9548 2 9.605974 21.404696 36.517838
9549 2 9.605899 11.156674 43.902436
9550 2 0.370995 26.726443 43.902436
9551 2 18.577989 16.477798 51.287806
9552 2 9.343085 32.047567 51.287806
9553 2 9.135394 9.998283 22.991884
9554 2 -0.09951 25.568052 22.991884
9555 2 -0.099585 15.32003 30.377254
9556 2 8.872211 30.889799 30.377254
9557 2 36.313745 5.071385 37.761852
9558 2 8.872141 20.641154 37.761852
9559 2 8.872066 10.393132 45.14645
9560 2 36.050562 25.962902 45.14645
9561 2 17.844156 15.714257 52.53182
9562 2 8.609252 31.284026 52.53182
9563 2 8.436443 7.476603 22.293476
9564 2 35.614939 23.046372 22.293476
9565 2 35.614864 12.79835 29.678846
9566 2 8.17326 28.36812 29.678846
9567 2 35.614795 2.549705 37.063444
9568 2 8.17319 18.119475 37.063444
9569 2 8.173116 7.871453 44.448043
9570 2 35.351611 23.441222 44.448043
9571 2 17.144842 13.192577 51.833413
9572 2 7.909937 28.762346 51.833413
9573 2 9.932458 9.182427 20.350283
9574 2 0.697554 24.752196 20.350283
9575 2 0.697479 14.504174 27.734881
9576 2 9.669275 30.073943 27.734881
9577 2 0.697409 4.255529 35.120251
9578 2 9.669205 19.825299 35.120251
9579 2 9.66913 9.577276 42.504849
9580 2 0.434226 25.147046 42.504849
9581 2 18.640856 14.898401 49.889447
9582 2 9.405952 30.46817 49.889447
9583 2 8.972337 7.231224 20.570223
9584 2 36.150833 22.800993 20.570223
9585 2 36.150763 12.552348 27.955593
9586 2 8.709159 28.122117 27.955593
9587 2 36.150688 2.304326 35.340191
9588 2 8.709084 17.874095 35.340191
9589 2 8.709379 7.62545 42.72479
9590 2 35.887874 23.195219 42.72479
9591 2 17.6811 12.947197 50.11016
9592 2 8.446195 28.516967 50.11016
9593 2 15.577209 12.377967 25.726863
9594 2 6.342305 27.947736 25.726863
9595 2 15.577134 2.129944 33.112233
9596 2 6.34223 17.699714 33.112233
9597 2 6.34216 7.451069 40.496831
9598 2 15.313956 23.020838 40.496831
9599 2 15.314245 12.772816 47.881429
9600 2 6.079341 28.342585 47.881429
9601 2 15.314176 2.524171 55.266799
9602 2 6.079272 18.09394 55.266799
9603 2 15.277756 11.144218 26.968562
9604 2 6.042851 26.713987 26.968562
9605 2 15.277681 0.896196 34.35316
9606 2 6.042776 16.465965 34.35316
9607 2 6.043071 6.21732 41.737759
9608 2 15.014867 21.787089 41.737759
9609 2 15.014792 11.539067 49.123129
9610 2 5.779887 27.108837 49.123129
9611 2 15.014722 1.290422 56.507727
9612 2 5.779818 16.860192 56.507727
9613 2 13.114711 10.12035 26.697688
9614 2 3.879807 25.690119 26.697688
9615 2 12.588419 62.151405 34.083058
9616 2 3.879732 15.442097 34.083058
9617 2 3.879663 5.193452 41.467656
9618 2 12.851458 20.763221 41.467656
9619 2 12.851748 10.515199 48.852254
9620 2 3.616843 26.084969 48.852254
9621 2 12.851678 0.266554 56.236853
9622 2 3.616774 15.836324 56.236853
9623 2 13.624004 12.118263 24.606324
9624 2 4.3891 27.688032 24.606324
9625 2 13.623934 1.869618 31.991694
9626 2 4.38903 17.439387 31.991694
9627 2 4.388955 7.191365 39.376292
9628 2 13.360751 22.761134 39.376292
9629 2 13.360681 12.512489 46.760891
9630 2 4.125777 28.082259 46.760891
9631 2 13.360971 2.264467 54.146261
9632 2 4.126066 17.834236 54.146261
9633 2 12.076441 10.652213 25.324025
9634 2 2.841537 26.221983 25.324025
9635 2 12.076366 0.404191 32.708623
9636 2 2.841462 15.97396 32.708623
9637 2 2.841392 5.725316 40.093993
9638 2 11.813188 21.295085 40.093993
9639 2 11.813477 11.047063 47.478591
9640 2 2.578573 26.616832 47.478591
9641 2 11.813408 0.798418 54.863189
9642 2 2.578503 16.368187 54.863189
9643 2 3.572135 12.02609 27.632242
9644 2 12.543931 27.595859 27.632242
9645 2 3.572061 1.778068 35.017612
9646 2 12.543856 17.347837 35.017612
9647 2 12.543787 7.099192 42.40221
9648 2 3.308882 22.668961 42.40221
9649 2 3.309172 12.420939 49.786809
9650 2 12.280967 27.990708 49.786809
9651 2 3.309102 2.172294 57.172179
9652 2 12.280898 17.742063 57.172179
9653 2 4.918241 13.201296 27.508767
9654 2 13.890036 28.771065 27.508767
9655 2 4.918171 2.952651 34.893365
9656 2 13.889967 18.52242 34.893365
9657 2 13.890256 8.274398 42.278735
9658 2 4.655352 23.844167 42.278735
9659 2 4.655282 13.595522 49.663333
9660 2 13.627078 29.165292 49.663333
9661 2 4.655207 3.3475 57.047931
9662 2 13.627003 18.91727 57.047931
9663 2 5.541468 11.626881 24.202714
9664 2 14.513264 27.19665 24.202714
9665 2 5.541398 1.378236 31.587312
9666 2 14.513194 16.948005 31.587312
9667 2 14.513119 6.699983 38.972682
9668 2 5.278215 22.269752 38.972682
9669 2 5.278509 12.021107 46.35728
9670 2 14.250305 27.590877 46.35728
9671 2 5.278435 1.773085 53.741879
9672 2 14.25023 17.342855 53.741879
9673 2 6.38269 12.652617 25.4475
9674 2 15.354486 28.222387 25.4475
9675 2 6.382615 2.404595 32.83287
9676 2 15.354411 17.974364 32.83287
9677 2 15.354341 7.725719 40.217468
9678 2 6.119437 23.295489 40.217468
9679 2 6.119362 13.047467 47.602066
9680 2 15.091158 28.617236 47.602066
9681 2 6.119657 2.798822 54.987436
9682 2 15.091452 18.368591 54.987436
9683 2 3.654694 11.391466 25.486858
9684 2 12.62649 26.961235 25.486858
9685 2 3.654983 1.143444 32.871456
9686 2 12.626779 16.713213 32.871456
9687 2 12.626709 6.464568 40.256054
9688 2 3.391805 22.034337 40.256054
9689 2 3.39173 11.786315 47.641424
9690 2 12.363526 27.356085 47.641424
9691 2 3.391661 1.53767 55.026022
9692 2 12.363456 17.10744 55.026022
9693 2 34.522458 8.920232 22.883071
9694 2 7.080854 24.490001 22.883071
9695 2 7.080784 14.241357 30.267669
9696 2 34.25928 29.811126 30.267669
9697 2 7.081073 3.993334 37.653039
9698 2 34.259569 19.563104 37.653039
9699 2 16.052799 9.314459 45.037638
9700 2 6.817895 24.884228 45.037638
9701 2 6.81782 14.636206 52.422236
9702 2 15.789616 30.205975 52.422236
9703 2 1.910318 8.567733 21.679186
9704 2 10.882114 24.137502 21.679186
9705 2 10.882044 13.888857 29.063785
9706 2 1.64714 29.458626 29.063785
9707 2 10.881969 3.640835 36.448383
9708 2 1.647065 19.210604 36.448383
9709 2 19.854059 8.961959 43.832981
9710 2 10.619155 24.531728 43.832981
9711 2 10.61908 14.283706 51.218351
9712 2 19.590876 29.853476 51.218351
9713 2 35.512599 10.335213 23.305974
9714 2 8.070995 25.904982 23.305974
9715 2 8.07092 15.65696 30.690572
9716 2 35.249416 31.226729 30.690572
9717 2 8.07085 5.408315 38.075942
9718 2 35.249346 20.978084 38.075942
9719 2 17.042571 10.730062 45.460541
9720 2 7.807667 26.299831 45.460541
9721 2 7.807961 16.051187 52.845139
9722 2 16.779757 31.620956 52.845139
9723 2 1.472795 10.185743 22.122154
9724 2 10.444591 25.755512 22.122154
9725 2 10.444516 15.50749 29.506752
9726 2 1.209611 31.077259 29.506752
9727 2 10.444441 5.259468 36.892122
9728 2 1.209537 20.829237 36.892122
9729 2 19.416167 10.580592 44.276721
9730 2 10.181263 26.150362 44.276721
9731 2 10.181552 15.90234 51.661319
9732 2 19.153348 31.472109 51.661319
9733 2 36.074954 7.949301 21.49706
9734 2 8.63335 23.519071 21.49706
9735 2 8.633275 13.271049 28.88243
9736 2 35.81177 28.840818 28.88243
9737 2 8.633205 3.022404 36.267028
9738 2 35.811701 18.592173 36.267028
9739 2 17.60529 8.344151 43.651627
9740 2 8.370386 23.91392 43.651627
9741 2 8.370316 13.665275 51.036997
9742 2 17.342112 29.235044 51.036997
9743 6 0.333097 3.630247 19.999921
9744 6 9.304892 19.200017 19.999921
9745 6 9.305187 8.951372 27.38452
9746 6 0.070283 24.521141 27.38452
9747 6 0.070208 14.273119 34.769118
9748 6 9.042004 29.842888 34.769118
9749 6 0.070138 4.024474 42.154488
9750 6 9.041934 19.594243 42.154488
9751 6 9.041859 9.346221 49.539086
9752 6 -0.193045 24.91599 49.539086
9753 6 4.677071 6.577916 23.819169
9754 6 13.648866 22.147685 23.819169
9755 6 13.648791 11.899663 31.203767
9756 6 4.413887 27.469432 31.203767
9757 6 13.649086 1.651018 38.589137
9758 6 4.414182 17.220788 38.589137
9759 6 4.414107 6.972765 45.973735
9760 6 13.385903 22.542535 45.973735
9761 6 13.385833 12.29389 53.358333
9762 6 4.150929 27.863659 53.358333
9763 6 14.018293 6.265275 24.067663
9764 6 4.783388 21.835044 24.067663
9765 6 4.783319 11.586399 31.452261
9766 6 13.755115 27.156169 31.452261
9767 6 4.783244 1.338377 38.837631
9768 6 13.75504 16.908147 38.837631
9769 6 13.75497 6.659502 46.222229
9770 6 4.520066 22.229271 46.222229
9771 6 4.520355 11.981249 53.606828
9772 6 13.492151 27.551018 53.606828
9773 6 9.409998 3.226679 20.168928
9774 6 0.175093 18.796448 20.168928
9775 6 0.175024 8.547803 27.553527
9776 6 9.146819 24.117573 27.553527
9777 6 9.147109 13.86955 34.938125
9778 6 -0.087796 29.43932 34.938125
9779 6 9.147039 3.620906 42.322723
9780 6 -0.087865 19.190675 42.322723
9781 6 36.32546 8.942653 49.708093
9782 6 8.883856 24.512422 49.708093
9783 6 0.049805 14.231392 24.293005
9784 6 9.0216 29.801161 24.293005
9785 6 0.049735 3.982747 31.677604
9786 6 9.021531 19.552516 31.677604
9787 6 9.021456 9.304494 39.062202
9788 6 36.199952 24.874263 39.062202
9789 6 17.993182 14.625618 46.447572
9790 6 8.758278 30.195388 46.447572
9791 6 17.993471 4.377596 53.83217
9792 6 8.758567 19.947366 53.83217
9793 6 13.98528 11.551523 20.381923
9794 6 4.750375 27.121292 20.381923
9795 6 13.98521 1.302878 27.766522
9796 6 4.750306 16.872648 27.766522
9797 6 4.750595 6.624625 35.15112
9798 6 13.722391 22.194395 35.15112
9799 6 13.722321 11.94575 42.53649
9800 6 4.487417 27.515519 42.53649
9801 6 13.722246 1.697728 49.921088
9802 6 4.487342 17.267497 49.921088
9803 6 4.654313 11.943259 20.254589
9804 6 13.626109 27.513028 20.254589
9805 6 4.654238 1.695236 27.639188
9806 6 13.626034 17.265006 27.639188
9807 6 13.625965 7.016361 35.024558
9808 6 4.39106 22.58613 35.024558
9809 6 4.390985 12.338108 42.409156
9810 6 13.362781 27.907877 42.409156
9811 6 4.39128 2.089463 49.793754
9812 6 13.363076 17.659232 49.793754
9813 6 9.204188 14.311109 24.068435
9814 6 -0.030716 29.880878 24.068435
9815 6 9.204477 4.063087 31.453033
9816 6 -0.030427 19.632856 31.453033
9817 6 -0.030496 9.384211 38.838403
9818 6 8.941299 24.953981 38.838403
9819 6 8.941224 14.705958 46.223001
9820 6 36.11972 30.275728 46.223001
9821 6 8.941155 4.457314 53.607599
9822 6 17.912951 20.027083 53.607599
9823 3 11.708583 7.257381 25.913619
9824 3 2.473679 22.82715 25.913619
9825 3 2.473609 12.578505 33.298218
9826 3 11.445405 28.148274 33.298218
9827 3 2.473899 2.330483 40.683588
9828 3 11.445694 17.900252 40.683588
9829 3 11.445625 7.651607 48.068186
9830 3 2.21072 23.221377 48.068186
9831 3 2.210646 12.973355 55.452784
9832 3 11.182441 28.543124 55.452784
9833 3 7.410938 7.747517 25.485314
9834 3 16.382734 23.317286 25.485314
9835 3 16.382664 13.068642 32.870684
9836 3 7.14776 28.638411 32.870684
9837 3 16.382953 2.820619 40.255283
9838 3 7.148049 18.390389 40.255283
9839 3 7.147979 8.141744 47.639881
9840 3 16.119775 23.711513 47.639881
9841 3 16.1197 13.463491 55.025251
9842 3 6.884796 29.03326 55.025251
9843 3 4.709448 4.038798 25.614963
9844 3 13.681244 19.608567 25.614963
9845 3 13.681169 9.360545 32.999562
9846 3 4.446265 24.930315 32.999562
9847 3 4.44619 14.682292 40.38416
9848 3 13.417986 30.252062 40.38416
9849 3 4.446485 4.433647 47.76953
9850 3 13.41828 20.003417 47.76953
9851 3 13.418206 9.755395 55.154128
9852 3 4.183301 25.325164 55.154128
9853 3 7.20647 4.753139 22.080481
9854 3 16.178266 20.322908 22.080481
9855 3 16.178191 10.074886 29.46508
9856 3 6.943286 25.644656 29.46508
9857 3 6.943576 15.396633 36.849678
9858 3 15.915371 30.966403 36.849678
9859 3 6.943506 5.147989 44.235048
9860 3 15.915302 20.717758 44.235048
9861 3 15.915227 10.469736 51.619646
9862 3 6.680323 26.039505 51.619646
9863 3 2.692087 4.864619 22.0172
9864 3 11.663883 20.434388 22.0172
9865 3 11.664177 10.185743 29.401798
9866 3 2.429273 25.755512 29.401798
9867 3 2.429198 15.50749 36.786397
9868 3 11.400994 31.077259 36.786397
9869 3 2.429123 5.259468 44.171767
9870 3 11.400919 20.829237 44.171767
9871 3 11.400849 10.580592 51.556365
9872 3 2.165945 26.150362 51.556365
9873 3 11.583042 4.661589 21.867486
9874 3 2.348137 20.231358 21.867486
9875 3 2.348068 9.982713 29.252085
9876 3 11.319864 25.552482 29.252085
9877 3 11.319789 15.30446 36.637454
9878 3 2.084884 30.87423 36.637454
9879 3 11.320083 5.055815 44.022053
9880 3 2.085179 20.625585 44.022053
9881 3 2.085104 10.377563 51.406651
9882 3 11.0569 25.947332 51.406651
9883 3 0.114187 1.39692 22.110578
9884 3 9.085983 16.966689 22.110578
9885 3 9.085913 6.718044 29.495177
9886 3 -0.148991 22.287813 29.495177
9887 3 36.264334 12.039791 36.879775
9888 3 8.82273 27.60956 36.879775
9889 3 18.057565 1.791146 44.265145
9890 3 8.82266 17.360915 44.265145
9891 3 8.82295 7.112893 51.649743
9892 3 17.794745 22.682663 51.649743
9893 3 15.907594 5.167295 21.717001
9894 3 6.672689 20.737064 21.717001
9895 3 6.672615 10.489042 29.102371
9896 3 15.64441 26.058811 29.102371
9897 3 6.672545 0.240397 36.486969
9898 3 15.644341 15.810166 36.486969
9899 3 15.64463 5.562144 43.871567
9900 3 6.409726 21.131914 43.871567
9901 3 6.409656 10.883269 51.256937
9902 3 15.381452 26.453038 51.256937
9903 3 16.50027 7.467261 25.358752
9904 3 7.265366 23.037031 25.358752
9905 3 7.265291 12.789008 32.74335
9906 3 16.237086 28.358778 32.74335
9907 3 7.265221 2.540364 40.127949
9908 3 16.237017 18.110133 40.127949
9909 3 16.236942 7.862111 47.513319
9910 3 7.002038 23.43188 47.513319
9911 3 7.002332 13.183235 54.897917
9912 3 15.974128 28.753004 54.897917
9913 3 9.69424 0.916748 21.997907
9914 3 0.459336 16.486517 21.997907
9915 3 0.459266 6.237872 29.383277
9916 3 9.431062 21.807642 29.383277
9917 3 9.430987 11.559619 36.767875
9918 3 0.196083 27.129389 36.767875
9919 3 9.431282 1.310975 44.152474
9920 3 0.196378 16.880744 44.152474
9921 3 0.196303 6.632722 51.537072
9922 3 9.168098 22.202491 51.537072
9923 3 14.357647 3.98337 26.076453
9924 3 5.122743 19.553139 26.076453
9925 3 5.123037 9.304494 33.461051
9926 3 14.094833 24.874263 33.461051
9927 3 14.094758 14.626241 40.846421
9928 3 4.859854 30.19601 40.846421
9929 3 14.094689 4.377596 48.231019
9930 3 4.859784 19.947366 48.231019
9931 3 4.859709 9.699343 55.615617
9932 3 13.831505 25.269113 55.615617
9933 3 2.427651 7.674651 25.588725
9934 3 11.399447 23.24442 25.588725
9935 3 11.399372 12.996398 32.974095
9936 3 2.164468 28.566167 32.974095
9937 3 11.399303 2.747753 40.358693
9938 3 2.164398 18.317522 40.358693
9939 3 2.164324 8.0695 47.743291
9940 3 11.136119 23.639269 47.743291
9941 3 11.13605 13.390624 55.128661
9942 3 1.901145 28.960394 55.128661
9943 3 7.635993 0.979027 25.870403
9944 3 16.607789 16.548796 25.870403
9945 3 16.607714 6.300774 33.255773
9946 3 7.37281 21.870543 33.255773
9947 3 7.372735 11.622521 40.640371
9948 3 16.34453 27.192291 40.640371
9949 3 7.372665 1.373876 48.02497
9950 3 16.344461 16.943646 48.02497
9951 3 16.34475 6.695624 55.41034
9952 3 7.109846 22.265393 55.41034
9953 3 11.702133 0.26344 25.836447
9954 3 2.467229 15.83321 25.836447
9955 3 2.467154 5.585188 33.221046
9956 3 11.43895 21.154957 33.221046
9957 3 11.43888 10.906312 40.605644
9958 3 2.203976 26.476081 40.605644
9959 3 11.438805 0.65829 47.991014
9960 3 2.203901 16.228059 47.991014
9961 3 2.204196 5.979414 55.375612
9962 3 11.175991 21.549183 55.375612
9963 3 7.287288 13.288487 21.91379
9964 3 16.259084 28.858256 21.91379
9965 3 7.287218 3.039842 29.298388
9966 3 16.259014 18.609611 29.298388
9967 3 16.258939 8.361589 36.682986
9968 3 7.024035 23.931358 36.682986
9969 3 7.023965 13.682713 44.068356
9970 3 15.995761 29.252482 44.068356
9971 3 7.023891 3.434691 51.452954
9972 3 15.995686 19.00446 51.452954
9973 3 13.877456 9.272109 22.570524
9974 3 4.642552 24.841878 22.570524
9975 3 4.642477 14.593856 29.955122
9976 3 13.614273 30.163625 29.955122
9977 3 4.642408 4.345211 37.339721
9978 3 13.614203 19.91498 37.339721
9979 3 13.614493 9.666958 44.725091
9980 3 4.379588 25.236728 44.725091
9981 3 4.379519 14.988083 52.109689
9982 3 13.351315 30.557852 52.109689
9983 3 11.713152 13.267312 21.977071
9984 3 2.478247 28.837081 21.977071
9985 3 11.713082 3.018667 29.361669
9986 3 2.478178 18.588436 29.361669
9987 3 2.478103 8.340414 36.747039
9988 3 11.449899 23.910183 36.747039
9989 3 11.449829 13.661538 44.131637
9990 3 2.214925 29.231308 44.131637
9991 3 11.450118 3.413516 51.516235
9992 3 2.215214 18.983285 51.516235
9993 3 2.745176 0.046709 25.80635
9994 3 11.716971 15.616479 25.80635
9995 3 11.717261 5.368456 33.19172
9996 3 2.482356 20.938226 33.19172
9997 3 2.482287 10.689581 40.576318
9998 3 11.454083 26.25935 40.576318
9999 3 2.482212 0.441559 47.960917
10000 3 11.454008 16.011328 47.960917
10001 3 11.453938 5.762683 55.346287
10002 3 2.219034 21.332452 55.346287
10003 3 15.925527 13.043107 22.521906
10004 3 6.690623 28.612876 22.521906
10005 3 15.925453 2.795085 29.906504
10006 3 6.690548 18.364854 29.906504
10007 3 6.690479 8.116209 37.291874
10008 3 15.662274 23.685979 37.291874
10009 3 15.662564 13.437956 44.676472
10010 3 6.427659 29.007726 44.676472
10011 3 15.662494 3.189312 52.06107
10012 3 6.42759 18.759081 52.06107
10013 3 4.933453 9.418465 22.085112
10014 3 13.905249 24.988234 22.085112
10015 3 13.905543 14.739589 29.470482
10016 3 4.670639 30.309358 29.470482
10017 3 13.905468 4.491567 36.85508
10018 3 4.670564 20.061336 36.85508
10019 3 4.670494 9.812691 44.239678
10020 3 13.64229 25.382461 44.239678
10021 3 13.642215 15.134438 51.625048
10022 3 4.407311 30.704208 51.625048
10023 3 8.835052 11.714072 25.441326
10024 3 17.806847 27.283841 25.441326
10025 3 8.834977 1.466049 32.825924
10026 3 17.806772 17.035819 32.825924
10027 3 17.807067 6.787174 40.210523
10028 3 8.572163 22.356943 40.210523
10029 3 8.572088 12.108921 47.595893
10030 3 17.543883 27.67869 47.595893
10031 3 8.572018 1.860276 54.980491
10032 3 17.543814 17.430045 54.980491
10033 3 1.928363 12.767211 22.058101
10034 3 10.900159 28.33698 22.058101
10035 3 1.928293 2.518566 29.4427
10036 3 10.900089 18.088335 29.4427
10037 3 10.900014 7.840313 36.82807
10038 3 1.66511 23.410082 36.82807
10039 3 1.665404 13.161437 44.212668
10040 3 10.6372 28.731207 44.212668
10041 3 1.665329 2.913415 51.597266
10042 3 10.637125 18.483184 51.597266
10043 3 0.362701 11.590136 25.591812
10044 3 9.334496 27.159905 25.591812
10045 3 0.362631 1.341491 32.97641
10046 3 9.334427 16.911261 32.97641
10047 3 9.334352 6.663238 40.361008
10048 3 0.099447 22.233008 40.361008
10049 3 0.099378 11.984363 47.746378
10050 3 9.071174 27.554132 47.746378
10051 3 0.099667 1.736341 55.130977
10052 3 9.071463 17.30611 55.130977
10053 3 7.130008 15.440229 26.020117
10054 3 16.101804 31.009998 26.020117
10055 3 7.129933 5.192207 33.404715
10056 3 16.101729 20.761976 33.404715
10057 3 16.101659 10.513331 40.790085
10058 3 6.866755 26.0831 40.790085
10059 3 16.101584 0.265309 48.174683
10060 3 6.86668 15.835078 48.174683
10061 3 6.866975 5.586433 55.559282
10062 3 15.83877 21.156202 55.559282
10063 1 27.890688 3.810857 26.062562
10064 1 18.655784 19.380626 26.062562
10065 1 18.655709 9.132604 33.44716
10066 1 27.627505 24.702373 33.44716
10067 1 27.627799 14.453728 40.83253
10068 1 18.392895 30.023497 40.83253
10069 1 27.627725 4.205706 48.217128
10070 1 18.39282 19.775475 48.217128
10071 1 18.392751 9.52683 55.601726
10072 1 27.364546 25.0966 55.601726
10073 1 23.15735 1.522101 22.204728
10074 1 32.129146 17.09187 22.204728
10075 1 32.129435 6.843848 29.590098
10076 1 22.894531 22.413617 29.590098
10077 1 22.894461 12.164972 36.974697
10078 1 31.866257 27.734741 36.974697
10079 1 22.894386 1.91695 44.359295
10080 1 31.866182 17.486719 44.359295
10081 1 31.866112 7.238074 51.744665
10082 1 22.631208 22.807844 51.744665
10083 1 32.383686 1.015772 21.92768
10084 1 23.148781 16.585541 21.92768
10085 1 23.148712 6.336896 29.312279
10086 1 32.120507 21.906665 29.312279
10087 1 32.120797 11.658643 36.696877
10088 1 22.885892 27.228412 36.696877
10089 1 32.120727 1.409998 44.081475
10090 1 22.885823 16.979768 44.081475
10091 1 22.885748 6.731745 51.466845
10092 1 31.857544 22.301515 51.466845
10093 1 18.283426 3.891197 25.662038
10094 1 27.255222 19.460966 25.662038
10095 1 27.255152 9.212321 33.046637
10096 1 18.020248 24.78209 33.046637
10097 1 18.020173 14.534068 40.431235
10098 1 26.991969 30.103837 40.431235
10099 1 18.020468 4.285423 47.816605
10100 1 26.992264 19.855193 47.816605
10101 1 26.992189 9.60717 55.201203
10102 1 35.963984 25.17694 55.201203
10103 1 27.624189 8.976906 21.242392
10104 1 18.389284 24.546675 21.242392
10105 1 18.389209 14.298653 28.62699
10106 1 27.361005 29.868423 28.62699
10107 1 18.389504 4.050008 36.011589
10108 1 27.3613 19.619778 36.011589
10109 1 27.361225 9.371755 43.396959
10110 1 18.126321 24.941525 43.396959
10111 1 -0.080449 14.69288 50.781557
10112 1 27.098047 30.262649 50.781557
10113 1 32.055853 11.587645 25.533161
10114 1 22.820948 27.157414 25.533161
10115 1 32.055778 1.339623 32.917759
10116 1 22.820873 16.909392 32.917759
10117 1 22.820804 6.660747 40.303129
10118 1 31.792599 22.230517 40.303129
10119 1 31.792525 11.982494 47.687727
10120 1 22.55762 27.552264 47.687727
10121 1 31.792819 1.73385 55.072326
10122 1 22.557915 17.303619 55.072326
10123 1 22.691164 11.962565 25.856512
10124 1 31.662959 27.532334 25.856512
10125 1 22.691094 1.71392 33.24111
10126 1 31.66289 17.283689 33.24111
10127 1 31.663179 7.035667 40.625709
10128 1 22.428275 22.605437 40.625709
10129 1 22.428205 12.356792 48.011079
10130 1 31.400001 27.926561 48.011079
10131 1 22.42813 2.10877 55.395677
10132 1 31.399926 17.678539 55.395677
10133 1 18.168238 8.86169 22.064275
10134 1 27.140034 24.431459 22.064275
10135 1 27.140328 14.182814 29.449645
10136 1 17.905424 29.752583 29.449645
10137 1 27.140253 3.934792 36.834243
10138 1 17.905349 19.504561 36.834243
10139 1 36.111979 9.255916 44.218842
10140 1 26.877075 24.825686 44.218842
10141 1 26.877 14.577664 51.60344
10142 1 35.848796 30.147433 51.60344
10143 4 27.945365 3.330062 24.824721
10144 4 18.710461 18.899831 24.824721
10145 4 18.71075 8.651809 32.209319
10146 4 27.682546 24.221579 32.209319
10147 4 27.682476 13.972934 39.593918
10148 4 18.447572 29.542703 39.593918
10149 4 27.682402 3.724912 46.979288
10150 4 18.447497 19.294681 46.979288
10151 4 18.447428 9.046036 54.363886
10152 4 27.419223 24.615805 54.363886
10153 4 27.10366 4.774937 26.445335
10154 4 17.868756 20.344706 26.445335
10155 4 17.868686 10.096061 33.829933
10156 4 26.840482 25.66583 33.829933
10157 4 26.840771 15.417808 41.214532
10158 4 17.605867 30.987578 41.214532
10159 4 26.840701 5.169163 48.599902
10160 4 17.605797 20.738933 48.599902
10161 4 17.605722 10.490911 55.9845
10162 4 26.577518 26.06068 55.9845
10163 4 22.307291 0.809628 21.511723
10164 4 31.279086 16.379397 21.511723
10165 4 31.279017 6.130752 28.896321
10166 4 22.044113 21.700522 28.896321
10167 4 22.044038 11.452499 36.280919
10168 4 31.015833 27.022269 36.280919
10169 4 22.043968 1.203855 43.666289
10170 4 31.015764 16.773624 43.666289
10171 4 31.016053 6.525602 51.050888
10172 4 21.781149 22.095371 51.050888
10173 4 24.38229 1.04878 22.529623
10174 4 33.354086 16.618549 22.529623
10175 4 33.354016 6.369904 29.914221
10176 4 24.119112 21.939673 29.914221
10177 4 24.119401 11.691651 37.298819
10178 4 33.091197 27.26142 37.298819
10179 4 24.119332 1.443006 44.684189
10180 4 33.091128 17.012775 44.684189
10181 4 33.091053 6.764753 52.068788
10182 4 23.856148 22.334523 52.068788
10183 4 32.284396 1.130988 23.225715
10184 4 23.049492 16.700757 23.225715
10185 4 23.049786 6.452112 30.611085
10186 4 32.021582 22.021882 30.611085
10187 4 32.021507 11.773859 37.995683
10188 4 22.786603 27.343629 37.995683
10189 4 32.021437 1.525215 45.380282
10190 4 22.786533 17.094984 45.380282
10191 4 22.786458 6.846962 52.765652
10192 4 31.758254 22.416731 52.765652
10193 4 31.376431 1.152163 21.088048
10194 4 22.141527 16.721932 21.088048
10195 4 22.141457 6.473287 28.472646
10196 4 31.113253 22.043056 28.472646
10197 4 31.113178 11.795034 35.857245
10198 4 21.878274 27.364804 35.857245
10199 4 31.113108 1.546389 43.242615
10200 4 21.878204 17.116159 43.242615
10201 4 21.878129 6.868137 50.627213
10202 4 30.849925 22.437906 50.627213
10203 4 17.882166 2.984413 26.541029
10204 4 26.853961 18.554183 26.541029
10205 4 26.853892 8.305538 33.926399
10206 4 17.618987 23.875307 33.926399
10207 4 17.619277 13.627285 41.310997
10208 4 26.591072 29.197054 41.310997
10209 4 17.619207 3.37864 48.695595
10210 4 26.591003 18.948409 48.695595
10211 4 26.590928 8.700387 56.080965
10212 4 35.562724 24.270156 56.080965
10213 4 18.960233 3.560495 24.607096
10214 4 27.932028 19.130264 24.607096
10215 4 27.932323 8.881619 31.991694
10216 4 18.697419 24.451388 31.991694
10217 4 18.697344 14.203366 39.376292
10218 4 27.669139 29.773136 39.376292
10219 4 18.697274 3.954721 46.761662
10220 4 27.66907 19.524491 46.761662
10221 4 27.668995 9.276469 54.146261
10222 4 0.227391 24.846238 54.146261
10223 4 27.746333 9.90611 22.120611
10224 4 18.511429 25.475879 22.120611
10225 4 18.511359 15.227234 29.505209
10226 4 27.483155 30.797004 29.505209
10227 4 18.511285 4.979212 36.889807
10228 4 27.48308 20.548981 36.889807
10229 4 27.483375 10.300337 44.275177
10230 4 18.24847 25.870106 44.275177
10231 4 0.041696 15.622084 51.659775
10232 4 27.220191 31.191853 51.659775
10233 4 27.094493 7.799209 21.4523
10234 4 17.859588 23.368978 21.4523
10235 4 17.859514 13.120956 28.836899
10236 4 26.831309 28.690725 28.836899
10237 4 17.859444 2.872311 36.221497
10238 4 26.83124 18.44208 36.221497
10239 4 26.831529 8.194058 43.606867
10240 4 17.596625 23.763827 43.606867
10241 4 35.80325 13.515805 50.991465
10242 4 26.568346 29.085575 50.991465
10243 4 33.177717 11.763895 26.181407
10244 4 23.942812 27.333664 26.181407
10245 4 33.177647 1.51525 33.566005
10246 4 23.942743 17.085019 33.566005
10247 4 23.943032 6.836997 40.951375
10248 4 32.914828 22.406766 40.951375
10249 4 32.914758 12.158121 48.335973
10250 4 23.679854 27.727891 48.335973
10251 4 32.914683 1.910099 55.720571
10252 4 23.679779 17.479869 55.720571
10253 4 31.13645 10.678371 25.84648
10254 4 21.901546 26.24814 25.84648
10255 4 31.136375 0.430348 33.231078
10256 4 21.901471 16.000118 33.231078
10257 4 21.901401 5.751473 40.615676
10258 4 30.873197 21.321242 40.615676
10259 4 30.873122 11.07322 48.001046
10260 4 21.638218 26.642989 48.001046
10261 4 30.873053 0.824575 55.385644
10262 4 21.638148 16.394344 55.385644
10263 4 23.72584 12.071553 25.121834
10264 4 32.697636 27.641323 25.121834
10265 4 23.725765 1.823531 32.506432
10266 4 32.697561 17.393301 32.506432
10267 4 32.697491 7.144656 39.89103
10268 4 23.462587 22.714425 39.89103
10269 4 23.462876 12.466403 47.2764
10270 4 32.434672 28.036172 47.2764
10271 4 23.462807 2.217758 54.660998
10272 4 32.434602 17.787527 54.660998
10273 4 22.494682 12.505016 27.051136
10274 4 31.466477 28.074785 27.051136
10275 4 22.494612 2.256371 34.435734
10276 4 31.466408 17.82614 34.435734
10277 4 31.466333 7.578118 41.821104
10278 4 22.231429 23.147887 41.821104
10279 4 22.231354 12.899865 49.205703
10280 4 31.20315 28.469634 49.205703
10281 4 22.231284 2.65122 56.590301
10282 4 31.20308 18.22099 56.590301
10283 4 17.252793 9.46642 22.759596
10284 4 26.224589 25.036189 22.759596
10285 4 26.224514 14.788167 30.144966
10286 4 16.98961 30.357936 30.144966
10287 4 26.224445 4.539522 37.529564
10288 4 16.98954 20.109291 37.529564
10289 4 35.196166 9.861269 44.914162
10290 4 25.961261 25.431038 44.914162
10291 4 25.961556 15.182393 52.299532
10292 4 34.933351 30.752163 52.299532
10293 4 19.435348 9.215435 21.928452
10294 4 28.407144 24.785204 21.928452
10295 4 28.407439 14.536559 29.31305
10296 4 19.172534 30.106329 29.31305
10297 4 28.407364 4.288537 36.69842
10298 4 19.17246 19.858306 36.69842
10299 4 0.96569 9.609662 44.083019
10300 4 28.144186 25.179431 44.083019
10301 4 28.144111 14.931409 51.467617
10302 4 0.702507 30.501178 51.467617
10303 2 27.329783 3.741104 24.111651
10304 2 18.094879 19.310873 24.111651
10305 2 18.094804 9.062851 31.496249
10306 2 27.0666 24.632621 31.496249
10307 2 27.06653 14.383976 38.881619
10308 2 17.831626 29.953745 38.881619
10309 2 27.066819 4.135954 46.266217
10310 2 17.831915 19.705723 46.266217
10311 2 17.831845 9.457078 53.650816
10312 2 26.803641 25.026847 53.650816
10313 2 26.691518 5.414543 25.741526
10314 2 17.456614 20.984312 25.741526
10315 2 17.456544 10.735667 33.126896
10316 2 26.42834 26.305437 33.126896
10317 2 26.428265 16.057414 40.511494
10318 2 17.193361 31.627184 40.511494
10319 2 26.428195 5.80877 47.896092
10320 2 17.193291 21.378539 47.896092
10321 2 17.19358 11.130517 55.281462
10322 2 26.165376 26.700286 55.281462
10323 2 28.424306 3.274634 26.81962
10324 2 19.189401 18.844403 26.81962
10325 2 19.189332 8.595758 34.204218
10326 2 28.161128 24.165527 34.204218
10327 2 28.161053 13.917505 41.588816
10328 2 18.926148 29.487275 41.588816
10329 2 28.161347 3.66886 48.974186
10330 2 18.926443 19.23863 48.974186
10331 2 18.926368 8.990608 56.358785
10332 2 27.898164 24.560377 56.358785
10333 2 28.558992 2.590187 24.66266
10334 2 19.324088 18.159956 24.66266
10335 2 19.324018 7.911311 32.047258
10336 2 28.295814 23.48108 32.047258
10337 2 28.296103 13.233058 39.432628
10338 2 19.061199 28.802828 39.432628
10339 2 28.296034 2.984413 46.817226
10340 2 19.06113 18.554183 46.817226
10341 2 19.061055 8.30616 54.201824
10342 2 28.03285 23.87593 54.201824
10343 2 26.926679 4.948695 27.497963
10344 2 17.691775 20.518465 27.497963
10345 2 17.691705 10.26982 34.882561
10346 2 26.663501 25.839589 34.882561
10347 2 26.663426 15.591567 42.267159
10348 2 17.428522 31.161336 42.267159
10349 2 26.663356 5.342922 49.652529
10350 2 17.428452 20.912691 49.652529
10351 2 17.428741 10.664669 57.037127
10352 2 26.400537 26.234438 57.037127
10353 2 22.101136 62.185036 21.143612
10354 2 31.599149 15.475728 21.143612
10355 2 31.599443 5.227083 28.52821
10356 2 22.364539 20.796852 28.52821
10357 2 22.364464 10.54883 35.91358
10358 2 31.33626 26.118599 35.91358
10359 2 22.364395 0.300185 43.298178
10360 2 31.33619 15.869954 43.298178
10361 2 31.336115 5.621932 50.682777
10362 2 22.101211 21.191702 50.682777
10363 2 24.429625 0.05792 22.426984
10364 2 33.401421 15.627689 22.426984
10365 2 33.40171 5.379667 29.811582
10366 2 24.166806 20.949436 29.811582
10367 2 24.166736 10.700791 37.196952
10368 2 33.138532 26.27056 37.196952
10369 2 24.166661 0.452769 44.58155
10370 2 33.138457 16.022538 44.58155
10371 2 33.138387 5.773893 51.966149
10372 2 23.903483 21.343662 51.966149
10373 2 22.925061 2.466874 22.550459
10374 2 31.896856 18.036643 22.550459
10375 2 31.897151 7.787999 29.935058
10376 2 22.662247 23.357768 29.935058
10377 2 22.662172 13.109746 37.319656
10378 2 31.633967 28.679515 37.319656
10379 2 22.662102 2.861101 44.705026
10380 2 31.633898 18.43087 44.705026
10381 2 31.633823 8.182848 52.089624
10382 2 22.398919 23.752617 52.089624
10383 2 21.51865 1.23188 21.049462
10384 2 30.490446 16.801649 21.049462
10385 2 30.490376 6.553004 28.43406
10386 2 21.255472 22.122774 28.43406
10387 2 21.255397 11.874752 35.81943
10388 2 30.227193 27.444521 35.81943
10389 2 21.255327 1.626107 43.204028
10390 2 30.227123 17.195876 43.204028
10391 2 30.227048 6.947854 50.588627
10392 2 20.992144 22.517623 50.588627
10393 2 24.74335 1.369517 23.402439
10394 2 33.715146 16.939286 23.402439
10395 2 33.715076 6.690641 30.787809
10396 2 24.480172 22.26041 30.787809
10397 2 24.480097 12.012388 38.172408
10398 2 33.451893 27.582158 38.172408
10399 2 24.480028 1.763743 45.557006
10400 2 33.451823 17.333513 45.557006
10401 2 33.452113 7.085491 52.941604
10402 2 24.217208 22.65526 52.941604
10403 2 30.432336 1.31222 21.511723
10404 2 21.197431 16.881989 21.511723
10405 2 21.197362 6.633344 28.896321
10406 2 30.169158 22.203114 28.896321
10407 2 30.169083 11.955092 36.281691
10408 2 20.934178 27.524861 36.281691
10409 2 30.169013 1.706447 43.666289
10410 2 20.934109 17.276216 43.666289
10411 2 20.934034 7.028194 51.050888
10412 2 29.90583 22.597963 51.050888
10413 2 31.515909 1.322808 20.111049
10414 2 22.281005 16.892577 20.111049
10415 2 22.280935 6.643932 27.495648
10416 2 31.252731 22.213701 27.495648
10417 2 31.25302 11.965679 34.880246
10418 2 22.018116 27.535448 34.880246
10419 2 31.252951 1.717034 42.265616
10420 2 22.018046 17.286803 42.265616
10421 2 22.017971 7.038781 49.650214
10422 2 30.989767 22.608551 49.650214
10423 2 33.394006 0.86132 21.536418
10424 2 24.159102 16.431089 21.536418
10425 2 24.159032 6.182444 28.921016
10426 2 33.130828 21.752213 28.921016
10427 2 33.130753 11.504191 36.305614
10428 2 23.895849 27.07396 36.305614
10429 2 33.130683 1.255546 43.690984
10430 2 23.895779 16.825315 43.690984
10431 2 23.896068 6.577293 51.075583
10432 2 32.867864 22.147063 51.075583
10433 2 31.43645 1.375122 23.694922
10434 2 22.201546 16.944891 23.694922
10435 2 22.201476 6.696246 31.080292
10436 2 31.173272 22.266016 31.080292
10437 2 31.173197 12.017993 38.46489
10438 2 21.938293 27.587763 38.46489
10439 2 31.173127 1.769349 45.849488
10440 2 21.938223 17.339118 45.849488
10441 2 21.938512 7.091096 53.234086
10442 2 30.910308 22.660865 53.234086
10443 2 33.151376 1.047534 23.774409
10444 2 23.916472 16.617303 23.774409
10445 2 23.916766 6.368658 31.159007
10446 2 32.888562 21.938428 31.159007
10447 2 32.888487 11.690406 38.544377
10448 2 23.653583 27.260175 38.544377
10449 2 32.888417 1.441761 45.928975
10450 2 23.653513 17.01153 45.928975
10451 2 23.653438 6.763508 53.313574
10452 2 32.625234 22.333277 53.313574
10453 2 18.209019 2.052718 26.635179
10454 2 27.180815 17.622488 26.635179
10455 2 27.18074 7.374466 34.020549
10456 2 17.945836 22.944235 34.020549
10457 2 17.94613 12.69559 41.405147
10458 2 26.917926 28.265359 41.405147
10459 2 17.946055 2.447568 48.789745
10460 2 26.917851 18.017337 48.789745
10461 2 26.917781 7.768692 56.175115
10462 2 35.889577 23.338461 56.175115
10463 2 19.497516 4.271099 24.136346
10464 2 28.469312 19.840868 24.136346
10465 2 28.469601 9.592846 31.520944
10466 2 19.234697 25.162615 31.520944
10467 2 19.234627 14.913971 38.905542
10468 2 28.206423 30.48374 38.905542
10469 2 19.234553 4.665948 46.290912
10470 2 28.206348 20.235718 46.290912
10471 2 28.206279 9.987073 53.675511
10472 2 0.764674 25.556842 53.675511
10473 2 17.954575 4.930012 25.765449
10474 2 26.926371 20.499781 25.765449
10475 2 26.92666 10.251759 33.150819
10476 2 17.691756 25.821528 33.150819
10477 2 17.691686 15.572883 40.535417
10478 2 26.663482 31.142652 40.535417
10479 2 17.691611 5.324861 47.920015
10480 2 26.663407 20.89463 47.920015
10481 2 26.663338 10.645985 55.305385
10482 2 35.635133 26.215755 55.305385
10483 2 19.355385 2.647484 24.412622
10484 2 28.327181 18.217253 24.412622
10485 2 28.327106 7.969231 31.797992
10486 2 19.092202 23.539 31.797992
10487 2 19.092132 13.290355 39.18259
10488 2 28.063928 28.860124 39.18259
10489 2 19.092058 3.042333 46.567189
10490 2 28.063853 18.612102 46.567189
10491 2 28.064148 8.363457 53.952559
10492 2 0.622544 23.933226 53.952559
10493 2 17.487822 3.327571 27.386063
10494 2 26.459618 18.89734 27.386063
10495 2 26.459548 8.648695 34.770661
10496 2 17.224644 24.218465 34.770661
10497 2 17.224933 13.970443 42.156031
10498 2 26.196729 29.540212 42.156031
10499 2 17.224864 3.721798 49.54063
10500 2 26.196659 19.291567 49.54063
10501 2 26.196584 9.043545 56.925228
10502 2 35.16838 24.613314 56.925228
10503 2 28.075927 10.761824 21.74787
10504 2 18.841023 26.331594 21.74787
10505 2 18.840948 16.083572 29.133239
10506 2 27.812744 31.653341 29.133239
10507 2 18.840878 5.834927 36.517838
10508 2 27.812674 21.404696 36.517838
10509 2 27.812599 11.156674 43.902436
10510 2 18.577695 26.726443 43.902436
10511 2 0.371289 16.477798 51.287806
10512 2 27.549785 32.047567 51.287806
10513 2 27.342094 9.998283 22.991884
10514 2 18.10719 25.568052 22.991884
10515 2 18.107115 15.32003 30.377254
10516 2 27.078911 30.889799 30.377254
10517 2 18.107045 5.071385 37.761852
10518 2 27.078841 20.641154 37.761852
10519 2 27.078766 10.393132 45.14645
10520 2 17.843862 25.962902 45.14645
10521 2 36.050856 15.714257 52.53182
10522 2 26.815952 31.284026 52.53182
10523 2 26.643143 7.476603 22.293476
10524 2 17.408239 23.046372 22.293476
10525 2 17.408164 12.79835 29.678846
10526 2 26.37996 28.36812 29.678846
10527 2 17.408095 2.549705 37.063444
10528 2 26.37989 18.119475 37.063444
10529 2 26.379816 7.871453 44.448043
10530 2 17.144911 23.441222 44.448043
10531 2 35.351542 13.192577 51.833413
10532 2 26.116637 28.762346 51.833413
10533 2 28.139158 9.182427 20.350283
10534 2 18.904254 24.752196 20.350283
10535 2 18.904179 14.504174 27.734881
10536 2 27.875975 30.073943 27.734881
10537 2 18.904109 4.255529 35.120251
10538 2 27.875905 19.825299 35.120251
10539 2 27.87583 9.577276 42.504849
10540 2 18.640926 25.147046 42.504849
10541 2 0.434156 14.898401 49.889447
10542 2 27.612652 30.46817 49.889447
10543 2 27.179037 7.231224 20.570223
10544 2 17.944133 22.800993 20.570223
10545 2 17.944063 12.552348 27.955593
10546 2 26.915859 28.122117 27.955593
10547 2 17.943988 2.304326 35.340191
10548 2 26.915784 17.874095 35.340191
10549 2 26.916079 7.62545 42.72479
10550 2 17.681174 23.195219 42.72479
10551 2 35.8878 12.947197 50.11016
10552 2 26.652895 28.516967 50.11016
10553 2 33.783909 12.377967 25.726863
10554 2 24.549005 27.947736 25.726863
10555 2 33.783834 2.129944 33.112233
10556 2 24.54893 17.699714 33.112233
10557 2 24.54886 7.451069 40.496831
10558 2 33.520656 23.020838 40.496831
10559 2 33.520945 12.772816 47.881429
10560 2 24.286041 28.342585 47.881429
10561 2 33.520876 2.524171 55.266799
10562 2 24.285972 18.09394 55.266799
10563 2 33.484456 11.144218 26.968562
10564 2 24.249551 26.713987 26.968562
10565 2 33.484381 0.896196 34.35316
10566 2 24.249476 16.465965 34.35316
10567 2 24.249771 6.21732 41.737759
10568 2 33.221567 21.787089 41.737759
10569 2 33.221492 11.539067 49.123129
10570 2 23.986587 27.108837 49.123129
10571 2 33.221422 1.290422 56.507727
10572 2 23.986518 16.860192 56.507727
10573 2 31.321411 10.12035 26.697688
10574 2 22.086507 25.690119 26.697688
10575 2 30.795119 62.151405 34.083058
10576 2 22.086432 15.442097 34.083058
10577 2 22.086363 5.193452 41.467656
10578 2 31.058158 20.763221 41.467656
10579 2 31.058448 10.515199 48.852254
10580 2 21.823543 26.084969 48.852254
10581 2 31.058378 0.266554 56.236853
10582 2 21.823474 15.836324 56.236853
10583 2 31.830704 12.118263 24.606324
10584 2 22.5958 27.688032 24.606324
10585 2 31.830634 1.869618 31.991694
10586 2 22.59573 17.439387 31.991694
10587 2 22.595655 7.191365 39.376292
10588 2 31.567451 22.761134 39.376292
10589 2 31.567381 12.512489 46.760891
10590 2 22.332477 28.082259 46.760891
10591 2 31.567671 2.264467 54.146261
10592 2 22.332766 17.834236 54.146261
10593 2 30.283141 10.652213 25.324025
10594 2 21.048237 26.221983 25.324025
10595 2 30.283066 0.404191 32.708623
10596 2 21.048162 15.97396 32.708623
10597 2 21.048092 5.725316 40.093993
10598 2 30.019888 21.295085 40.093993
10599 2 30.020177 11.047063 47.478591
10600 2 20.785273 26.616832 47.478591
10601 2 30.020108 0.798418 54.863189
10602 2 20.785203 16.368187 54.863189
10603 2 21.778835 12.02609 27.632242
10604 2 30.750631 27.595859 27.632242
10605 2 21.778761 1.778068 35.017612
10606 2 30.750556 17.347837 35.017612
10607 2 30.750487 7.099192 42.40221
10608 2 21.515582 22.668961 42.40221
10609 2 21.515872 12.420939 49.786809
10610 2 30.487667 27.990708 49.786809
10611 2 21.515802 2.172294 57.172179
10612 2 30.487598 17.742063 57.172179
10613 2 23.124941 13.201296 27.508767
10614 2 32.096736 28.771065 27.508767
10615 2 23.124871 2.952651 34.893365
10616 2 32.096667 18.52242 34.893365
10617 2 32.096956 8.274398 42.278735
10618 2 22.862052 23.844167 42.278735
10619 2 22.861982 13.595522 49.663333
10620 2 31.833778 29.165292 49.663333
10621 2 22.861907 3.3475 57.047931
10622 2 31.833703 18.91727 57.047931
10623 2 23.748168 11.626881 24.202714
10624 2 32.719964 27.19665 24.202714
10625 2 23.748098 1.378236 31.587312
10626 2 32.719894 16.948005 31.587312
10627 2 32.719819 6.699983 38.972682
10628 2 23.484915 22.269752 38.972682
10629 2 23.485209 12.021107 46.35728
10630 2 32.457005 27.590877 46.35728
10631 2 23.485135 1.773085 53.741879
10632 2 32.45693 17.342855 53.741879
10633 2 24.58939 12.652617 25.4475
10634 2 33.561186 28.222387 25.4475
10635 2 24.589315 2.404595 32.83287
10636 2 33.561111 17.974364 32.83287
10637 2 33.561041 7.725719 40.217468
10638 2 24.326137 23.295489 40.217468
10639 2 24.326062 13.047467 47.602066
10640 2 33.297858 28.617236 47.602066
10641 2 24.326357 2.798822 54.987436
10642 2 33.298152 18.368591 54.987436
10643 2 21.861394 11.391466 25.486858
10644 2 30.83319 26.961235 25.486858
10645 2 21.861683 1.143444 32.871456
10646 2 30.833479 16.713213 32.871456
10647 2 30.833409 6.464568 40.256054
10648 2 21.598505 22.034337 40.256054
10649 2 21.59843 11.786315 47.641424
10650 2 30.570226 27.356085 47.641424
10651 2 21.598361 1.53767 55.026022
10652 2 30.570156 17.10744 55.026022
10653 2 16.315758 8.920232 22.883071
10654 2 25.287554 24.490001 22.883071
10655 2 25.287484 14.241357 30.267669
10656 2 16.05258 29.811126 30.267669
10657 2 25.287773 3.993334 37.653039
10658 2 16.052869 19.563104 37.653039
10659 2 34.259499 9.314459 45.037638
10660 2 25.024595 24.884228 45.037638
10661 2 25.02452 14.636206 52.422236
10662 2 33.996316 30.205975 52.422236
10663 2 20.117018 8.567733 21.679186
10664 2 29.088814 24.137502 21.679186
10665 2 29.088744 13.888857 29.063785
10666 2 19.85384 29.458626 29.063785
10667 2 29.088669 3.640835 36.448383
10668 2 19.853765 19.210604 36.448383
10669 2 1.647359 8.961959 43.832981
10670 2 28.825855 24.531728 43.832981
10671 2 28.82578 14.283706 51.218351
10672 2 1.384176 29.853476 51.218351
10673 2 17.305899 10.335213 23.305974
10674 2 26.277695 25.904982 23.305974
10675 2 26.27762 15.65696 30.690572
10676 2 17.042716 31.226729 30.690572
10677 2 26.27755 5.408315 38.075942
10678 2 17.042646 20.978084 38.075942
10679 2 35.249271 10.730062 45.460541
10680 2 26.014367 26.299831 45.460541
10681 2 26.014661 16.051187 52.845139
10682 2 34.986457 31.620956 52.845139
10683 2 19.679495 10.185743 22.122154
10684 2 28.651291 25.755512 22.122154
10685 2 28.651216 15.50749 29.506752
10686 2 19.416311 31.077259 29.506752
10687 2 28.651141 5.259468 36.892122
10688 2 19.416237 20.829237 36.892122
10689 2 1.209467 10.580592 44.276721
10690 2 28.387963 26.150362 44.276721
10691 2 28.388252 15.90234 51.661319
10692 2 0.946648 31.472109 51.661319
10693 2 17.868254 7.949301 21.49706
10694 2 26.84005 23.519071 21.49706
10695 2 26.839975 13.271049 28.88243
10696 2 17.60507 28.840818 28.88243
10697 2 26.839905 3.022404 36.267028
10698 2 17.605001 18.592173 36.267028
10699 2 35.81199 8.344151 43.651627
10700 2 26.577086 23.91392 43.651627
10701 2 26.577016 13.665275 51.036997
10702 2 35.548812 29.235044 51.036997
10703 6 18.539797 3.630247 19.999921
10704 6 27.511592 19.200017 19.999921
10705 6 27.511887 8.951372 27.38452
10706 6 18.276983 24.521141 27.38452
10707 6 18.276908 14.273119 34.769118
10708 6 27.248704 29.842888 34.769118
10709 6 18.276838 4.024474 42.154488
10710 6 27.248634 19.594243 42.154488
10711 6 27.248559 9.346221 49.539086
10712 6 18.013655 24.91599 49.539086
10713 6 22.883771 6.577916 23.819169
10714 6 31.855566 22.147685 23.819169
10715 6 31.855491 11.899663 31.203767
10716 6 22.620587 27.469432 31.203767
10717 6 31.855786 1.651018 38.589137
10718 6 22.620882 17.220788 38.589137
10719 6 22.620807 6.972765 45.973735
10720 6 31.592603 22.542535 45.973735
10721 6 31.592533 12.29389 53.358333
10722 6 22.357629 27.863659 53.358333
10723 6 32.224993 6.265275 24.067663
10724 6 22.990088 21.835044 24.067663
10725 6 22.990019 11.586399 31.452261
10726 6 31.961815 27.156169 31.452261
10727 6 22.989944 1.338377 38.837631
10728 6 31.96174 16.908147 38.837631
10729 6 31.96167 6.659502 46.222229
10730 6 22.726766 22.229271 46.222229
10731 6 22.727055 11.981249 53.606828
10732 6 31.698851 27.551018 53.606828
10733 6 27.616698 3.226679 20.168928
10734 6 18.381793 18.796448 20.168928
10735 6 18.381724 8.547803 27.553527
10736 6 27.353519 24.117573 27.553527
10737 6 27.353809 13.86955 34.938125
10738 6 18.118904 29.43932 34.938125
10739 6 27.353739 3.620906 42.322723
10740 6 18.118835 19.190675 42.322723
10741 6 18.11876 8.942653 49.708093
10742 6 27.090556 24.512422 49.708093
10743 6 18.256505 14.231392 24.293005
10744 6 27.2283 29.801161 24.293005
10745 6 18.256435 3.982747 31.677604
10746 6 27.228231 19.552516 31.677604
10747 6 27.228156 9.304494 39.062202
10748 6 17.993252 24.874263 39.062202
10749 6 36.199882 14.625618 46.447572
10750 6 26.964978 30.195388 46.447572
10751 6 36.200171 4.377596 53.83217
10752 6 26.965267 19.947366 53.83217
10753 6 32.19198 11.551523 20.381923
10754 6 22.957075 27.121292 20.381923
10755 6 32.19191 1.302878 27.766522
10756 6 22.957006 16.872648 27.766522
10757 6 22.957295 6.624625 35.15112
10758 6 31.929091 22.194395 35.15112
10759 6 31.929021 11.94575 42.53649
10760 6 22.694117 27.515519 42.53649
10761 6 31.928946 1.697728 49.921088
10762 6 22.694042 17.267497 49.921088
10763 6 22.861013 11.943259 20.254589
10764 6 31.832809 27.513028 20.254589
10765 6 22.860938 1.695236 27.639188
10766 6 31.832734 17.265006 27.639188
10767 6 31.832665 7.016361 35.024558
10768 6 22.59776 22.58613 35.024558
10769 6 22.597685 12.338108 42.409156
10770 6 31.569481 27.907877 42.409156
10771 6 22.59798 2.089463 49.793754
10772 6 31.569776 17.659232 49.793754
10773 6 27.410888 14.311109 24.068435
10774 6 18.175984 29.880878 24.068435
10775 6 27.411177 4.063087 31.453033
10776 6 18.176273 19.632856 31.453033
10777 6 18.176204 9.384211 38.838403
10778 6 27.147999 24.953981 38.838403
10779 6 27.147924 14.705958 46.223001
10780 6 17.91302 30.275728 46.223001
10781 6 27.147855 4.457314 53.607599
10782 6 36.119651 20.027083 53.607599
10783 3 29.915283 7.257381 25.913619
10784 3 20.680379 22.82715 25.913619
10785 3 20.680309 12.578505 33.298218
10786 3 29.652105 28.148274 33.298218
10787 3 20.680599 2.330483 40.683588
10788 3 29.652394 17.900252 40.683588
10789 3 29.652325 7.651607 48.068186
10790 3 20.41742 23.221377 48.068186
10791 3 20.417346 12.973355 55.452784
10792 3 29.389141 28.543124 55.452784
10793 3 25.617638 7.747517 25.485314
10794 3 34.589434 23.317286 25.485314
10795 3 34.589364 13.068642 32.870684
10796 3 25.35446 28.638411 32.870684
10797 3 34.589653 2.820619 40.255283
10798 3 25.354749 18.390389 40.255283
10799 3 25.354679 8.141744 47.639881
10800 3 34.326475 23.711513 47.639881
10801 3 34.3264 13.463491 55.025251
10802 3 25.091496 29.03326 55.025251
10803 3 22.916148 4.038798 25.614963
10804 3 31.887944 19.608567 25.614963
10805 3 31.887869 9.360545 32.999562
10806 3 22.652965 24.930315 32.999562
10807 3 22.65289 14.682292 40.38416
10808 3 31.624686 30.252062 40.38416
10809 3 22.653185 4.433647 47.76953
10810 3 31.62498 20.003417 47.76953
10811 3 31.624906 9.755395 55.154128
10812 3 22.390001 25.325164 55.154128
10813 3 25.41317 4.753139 22.080481
10814 3 34.384966 20.322908 22.080481
10815 3 34.384891 10.074886 29.46508
10816 3 25.149986 25.644656 29.46508
10817 3 25.150276 15.396633 36.849678
10818 3 34.122071 30.966403 36.849678
10819 3 25.150206 5.147989 44.235048
10820 3 34.122002 20.717758 44.235048
10821 3 34.121927 10.469736 51.619646
10822 3 24.887023 26.039505 51.619646
10823 3 20.898787 4.864619 22.0172
10824 3 29.870583 20.434388 22.0172
10825 3 29.870877 10.185743 29.401798
10826 3 20.635973 25.755512 29.401798
10827 3 20.635898 15.50749 36.786397
10828 3 29.607694 31.077259 36.786397
10829 3 20.635823 5.259468 44.171767
10830 3 29.607619 20.829237 44.171767
10831 3 29.607549 10.580592 51.556365
10832 3 20.372645 26.150362 51.556365
10833 3 29.789742 4.661589 21.867486
10834 3 20.554837 20.231358 21.867486
10835 3 20.554768 9.982713 29.252085
10836 3 29.526564 25.552482 29.252085
10837 3 29.526489 15.30446 36.637454
10838 3 20.291584 30.87423 36.637454
10839 3 29.526783 5.055815 44.022053
10840 3 20.291879 20.625585 44.022053
10841 3 20.291804 10.377563 51.406651
10842 3 29.2636 25.947332 51.406651
10843 3 18.320887 1.39692 22.110578
10844 3 27.292683 16.966689 22.110578
10845 3 27.292613 6.718044 29.495177
10846 3 18.057709 22.287813 29.495177
10847 3 18.057634 12.039791 36.879775
10848 3 27.02943 27.60956 36.879775
10849 3 36.264265 1.791146 44.265145
10850 3 27.02936 17.360915 44.265145
10851 3 27.02965 7.112893 51.649743
10852 3 36.001445 22.682663 51.649743
10853 3 34.114294 5.167295 21.717001
10854 3 24.879389 20.737064 21.717001
10855 3 24.879315 10.489042 29.102371
10856 3 33.85111 26.058811 29.102371
10857 3 24.879245 0.240397 36.486969
10858 3 33.851041 15.810166 36.486969
10859 3 33.85133 5.562144 43.871567
10860 3 24.616426 21.131914 43.871567
10861 3 24.616356 10.883269 51.256937
10862 3 33.588152 26.453038 51.256937
10863 3 34.70697 7.467261 25.358752
10864 3 25.472066 23.037031 25.358752
10865 3 25.471991 12.789008 32.74335
10866 3 34.443786 28.358778 32.74335
10867 3 25.471921 2.540364 40.127949
10868 3 34.443717 18.110133 40.127949
10869 3 34.443642 7.862111 47.513319
10870 3 25.208738 23.43188 47.513319
10871 3 25.209032 13.183235 54.897917
10872 3 34.180828 28.753004 54.897917
10873 3 27.90094 0.916748 21.997907
10874 3 18.666036 16.486517 21.997907
10875 3 18.665966 6.237872 29.383277
10876 3 27.637762 21.807642 29.383277
10877 3 27.637687 11.559619 36.767875
10878 3 18.402783 27.129389 36.767875
10879 3 27.637982 1.310975 44.152474
10880 3 18.403078 16.880744 44.152474
10881 3 18.403003 6.632722 51.537072
10882 3 27.374798 22.202491 51.537072
10883 3 32.564347 3.98337 26.076453
10884 3 23.329443 19.553139 26.076453
10885 3 23.329737 9.304494 33.461051
10886 3 32.301533 24.874263 33.461051
10887 3 32.301458 14.626241 40.846421
10888 3 23.066554 30.19601 40.846421
10889 3 32.301389 4.377596 48.231019
10890 3 23.066484 19.947366 48.231019
10891 3 23.066409 9.699343 55.615617
10892 3 32.038205 25.269113 55.615617
10893 3 20.634351 7.674651 25.588725
10894 3 29.606147 23.24442 25.588725
10895 3 29.606072 12.996398 32.974095
10896 3 20.371168 28.566167 32.974095
10897 3 29.606003 2.747753 40.358693
10898 3 20.371098 18.317522 40.358693
10899 3 20.371024 8.0695 47.743291
10900 3 29.342819 23.639269 47.743291
10901 3 29.34275 13.390624 55.128661
10902 3 20.107845 28.960394 55.128661
10903 3 25.842693 0.979027 25.870403
10904 3 34.814489 16.548796 25.870403
10905 3 34.814414 6.300774 33.255773
10906 3 25.57951 21.870543 33.255773
10907 3 25.579435 11.622521 40.640371
10908 3 34.55123 27.192291 40.640371
10909 3 25.579365 1.373876 48.02497
10910 3 34.551161 16.943646 48.02497
10911 3 34.55145 6.695624 55.41034
10912 3 25.316546 22.265393 55.41034
10913 3 29.908833 0.26344 25.836447
10914 3 20.673929 15.83321 25.836447
10915 3 20.673854 5.585188 33.221046
10916 3 29.64565 21.154957 33.221046
10917 3 29.64558 10.906312 40.605644
10918 3 20.410676 26.476081 40.605644
10919 3 29.645505 0.65829 47.991014
10920 3 20.410601 16.228059 47.991014
10921 3 20.410896 5.979414 55.375612
10922 3 29.382691 21.549183 55.375612
10923 3 25.493988 13.288487 21.91379
10924 3 34.465784 28.858256 21.91379
10925 3 25.493918 3.039842 29.298388
10926 3 34.465714 18.609611 29.298388
10927 3 34.465639 8.361589 36.682986
10928 3 25.230735 23.931358 36.682986
10929 3 25.230665 13.682713 44.068356
10930 3 34.202461 29.252482 44.068356
10931 3 25.230591 3.434691 51.452954
10932 3 34.202386 19.00446 51.452954
10933 3 32.084156 9.272109 22.570524
10934 3 22.849252 24.841878 22.570524
10935 3 22.849177 14.593856 29.955122
10936 3 31.820973 30.163625 29.955122
10937 3 22.849108 4.345211 37.339721
10938 3 31.820903 19.91498 37.339721
10939 3 31.821193 9.666958 44.725091
10940 3 22.586288 25.236728 44.725091
10941 3 22.586219 14.988083 52.109689
10942 3 31.558015 30.557852 52.109689
10943 3 29.919852 13.267312 21.977071
10944 3 20.684947 28.837081 21.977071
10945 3 29.919782 3.018667 29.361669
10946 3 20.684878 18.588436 29.361669
10947 3 20.684803 8.340414 36.747039
10948 3 29.656599 23.910183 36.747039
10949 3 29.656529 13.661538 44.131637
10950 3 20.421625 29.231308 44.131637
10951 3 29.656818 3.413516 51.516235
10952 3 20.421914 18.983285 51.516235
10953 3 20.951876 0.046709 25.80635
10954 3 29.923671 15.616479 25.80635
10955 3 29.923961 5.368456 33.19172
10956 3 20.689056 20.938226 33.19172
10957 3 20.688987 10.689581 40.576318
10958 3 29.660783 26.25935 40.576318
10959 3 20.688912 0.441559 47.960917
10960 3 29.660708 16.011328 47.960917
10961 3 29.660638 5.762683 55.346287
10962 3 20.425734 21.332452 55.346287
10963 3 34.132227 13.043107 22.521906
10964 3 24.897323 28.612876 22.521906
10965 3 34.132153 2.795085 29.906504
10966 3 24.897248 18.364854 29.906504
10967 3 24.897179 8.116209 37.291874
10968 3 33.868974 23.685979 37.291874
10969 3 33.869264 13.437956 44.676472
10970 3 24.634359 29.007726 44.676472
10971 3 33.869194 3.189312 52.06107
10972 3 24.63429 18.759081 52.06107
10973 3 23.140153 9.418465 22.085112
10974 3 32.111949 24.988234 22.085112
10975 3 32.112243 14.739589 29.470482
10976 3 22.877339 30.309358 29.470482
10977 3 32.112168 4.491567 36.85508
10978 3 22.877264 20.061336 36.85508
10979 3 22.877194 9.812691 44.239678
10980 3 31.84899 25.382461 44.239678
10981 3 31.848915 15.134438 51.625048
10982 3 22.614011 30.704208 51.625048
10983 3 27.041752 11.714072 25.441326
10984 3 36.013547 27.283841 25.441326
10985 3 27.041677 1.466049 32.825924
10986 3 36.013472 17.035819 32.825924
10987 3 36.013767 6.787174 40.210523
10988 3 26.778863 22.356943 40.210523
10989 3 26.778788 12.108921 47.595893
10990 3 35.750583 27.67869 47.595893
10991 3 26.778718 1.860276 54.980491
10992 3 35.750514 17.430045 54.980491
10993 3 20.135063 12.767211 22.058101
10994 3 29.106859 28.33698 22.058101
10995 3 20.134993 2.518566 29.4427
10996 3 29.106789 18.088335 29.4427
10997 3 29.106714 7.840313 36.82807
10998 3 19.87181 23.410082 36.82807
10999 3 19.872104 13.161437 44.212668
11000 3 28.8439 28.731207 44.212668
11001 3 19.872029 2.913415 51.597266
11002 3 28.843825 18.483184 51.597266
11003 3 18.569401 11.590136 25.591812
11004 3 27.541196 27.159905 25.591812
11005 3 18.569331 1.341491 32.97641
11006 3 27.541127 16.911261 32.97641
11007 3 27.541052 6.663238 40.361008
11008 3 18.306147 22.233008 40.361008
11009 3 18.306078 11.984363 47.746378
11010 3 27.277874 27.554132 47.746378
11011 3 18.306367 1.736341 55.130977
11012 3 27.278163 17.30611 55.130977
11013 3 25.336708 15.440229 26.020117
11014 3 34.308504 31.009998 26.020117
11015 3 25.336633 5.192207 33.404715
11016 3 34.308429 20.761976 33.404715
11017 3 34.308359 10.513331 40.790085
11018 3 25.073455 26.0831 40.790085
11019 3 34.308284 0.265309 48.174683
11020 3 25.07338 15.835078 48.174683
11021 3 25.073675 5.586433 55.559282
11022 3 34.04547 21.156202 55.559282
11023 1 9.42088 34.950395 26.062562
11024 1 0.185975 50.520164 26.062562
11025 1 0.185901 40.272142 33.44716
11026 1 9.157696 55.841912 33.44716
11027 1 9.157991 45.593267 40.83253
11028 1 -0.076913 61.163036 40.83253
11029 1 9.157916 35.345245 48.217128
11030 1 -0.076988 50.915014 48.217128
11031 1 -0.077058 40.666369 55.601726
11032 1 8.894738 56.236138 55.601726
11033 1 4.687541 32.661639 22.204728
11034 1 13.659337 48.231408 22.204728
11035 1 13.659626 37.983386 29.590098
11036 1 4.424722 53.553155 29.590098
11037 1 4.424652 43.304511 36.974697
11038 1 13.396448 58.87428 36.974697
11039 1 4.424578 33.056488 44.359295
11040 1 13.396373 48.626258 44.359295
11041 1 13.396304 38.377613 51.744665
11042 1 4.161399 53.947382 51.744665
11043 1 13.913877 32.15531 21.92768
11044 1 4.678973 47.725079 21.92768
11045 1 4.678903 37.476435 29.312279
11046 1 13.650699 53.046204 29.312279
11047 1 13.650988 42.798182 36.696877
11048 1 4.416084 58.367951 36.696877
11049 1 13.650919 32.549537 44.081475
11050 1 4.416014 48.119306 44.081475
11051 1 4.415939 37.871284 51.466845
11052 1 13.387735 53.441053 51.466845
11053 1 -0.186382 35.030735 25.662038
11054 1 8.785413 50.600504 25.662038
11055 1 8.785344 40.35186 33.046637
11056 1 -0.44956 55.921629 33.046637
11057 1 35.963765 45.673607 40.431235
11058 1 8.52216 61.243376 40.431235
11059 1 35.964059 35.424962 47.816605
11060 1 8.522455 50.994731 47.816605
11061 1 8.52238 40.746709 55.201203
11062 1 17.494176 56.316478 55.201203
11063 1 9.15438 40.116445 21.242392
11064 1 -0.080524 55.686214 21.242392
11065 1 -0.080599 45.438192 28.62699
11066 1 8.891197 61.007961 28.62699
11067 1 -0.080305 35.189547 36.011589
11068 1 8.891491 50.759316 36.011589
11069 1 8.891416 40.511294 43.396959
11070 1 -0.343488 56.081063 43.396959
11071 1 17.863142 45.832418 50.781557
11072 1 8.628238 61.402188 50.781557
11073 1 13.586044 42.727184 25.533161
11074 1 4.35114 58.296953 25.533161
11075 1 13.585969 32.479161 32.917759
11076 1 4.351065 48.048931 32.917759
11077 1 4.350995 37.800286 40.303129
11078 1 13.322791 53.370055 40.303129
11079 1 13.322716 43.122033 47.687727
11080 1 4.087812 58.691802 47.687727
11081 1 13.323011 32.873388 55.072326
11082 1 4.088106 48.443157 55.072326
11083 1 4.221355 43.102104 25.856512
11084 1 13.193151 58.671873 25.856512
11085 1 4.221286 32.853459 33.24111
11086 1 13.193081 48.423228 33.24111
11087 1 13.193371 38.175206 40.625709
11088 1 3.958466 53.744975 40.625709
11089 1 3.958397 43.49633 48.011079
11090 1 12.930192 59.066099 48.011079
11091 1 3.958322 33.248308 55.395677
11092 1 12.930117 48.818077 55.395677
11093 1 -0.301571 40.001228 22.064275
11094 1 8.670225 55.570998 22.064275
11095 1 8.67052 45.322353 29.449645
11096 1 35.849015 60.892122 29.449645
11097 1 8.670445 35.074331 36.834243
11098 1 35.848941 50.6441 36.834243
11099 1 17.642171 40.395455 44.218842
11100 1 8.407267 55.965224 44.218842
11101 1 8.407192 45.717202 51.60344
11102 1 17.378988 61.286971 51.60344
11103 4 9.475557 34.469601 24.824721
11104 4 0.240652 50.03937 24.824721
11105 4 0.240942 39.791348 32.209319
11106 4 9.212737 55.361117 32.209319
11107 4 9.212668 45.112472 39.593918
11108 4 -0.022236 60.682241 39.593918
11109 4 9.212593 34.86445 46.979288
11110 4 -0.022311 50.434219 46.979288
11111 4 -0.022381 40.185574 54.363886
11112 4 8.949415 55.755344 54.363886
11113 4 8.633851 35.914475 26.445335
11114 4 35.812347 51.484245 26.445335
11115 4 35.812277 41.2356 33.829933
11116 4 8.370673 56.805369 33.829933
11117 4 8.370962 46.557347 41.214532
11118 4 35.549458 62.127116 41.214532
11119 4 8.370893 36.308702 48.599902
11120 4 35.549389 51.878471 48.599902
11121 4 35.549314 41.630449 55.9845
11122 4 8.107709 57.200218 55.9845
11123 4 3.837482 31.949166 21.511723
11124 4 12.809278 47.518936 21.511723
11125 4 12.809208 37.270291 28.896321
11126 4 3.574304 52.84006 28.896321
11127 4 3.574229 42.592038 36.280919
11128 4 12.546025 58.161807 36.280919
11129 4 3.57416 32.343393 43.666289
11130 4 12.545955 47.913162 43.666289
11131 4 12.546245 37.66514 51.050888
11132 4 3.31134 53.234909 51.050888
11133 4 5.912482 32.188318 22.529623
11134 4 14.884278 47.758087 22.529623
11135 4 14.884208 37.509442 29.914221
11136 4 5.649304 53.079212 29.914221
11137 4 5.649593 42.83119 37.298819
11138 4 14.621389 58.400959 37.298819
11139 4 5.649523 32.582545 44.684189
11140 4 14.621319 48.152314 44.684189
11141 4 14.621244 37.904292 52.068788
11142 4 5.38634 53.474061 52.068788
11143 4 13.814587 32.270527 23.225715
11144 4 4.579683 47.840296 23.225715
11145 4 4.579978 37.591651 30.611085
11146 4 13.551773 53.16142 30.611085
11147 4 13.551699 42.913398 37.995683
11148 4 4.316794 58.483167 37.995683
11149 4 13.551629 32.664753 45.380282
11150 4 4.316725 48.234522 45.380282
11151 4 4.31665 37.9865 52.765652
11152 4 13.288445 53.556269 52.765652
11153 4 12.906622 32.291701 21.088048
11154 4 3.671718 47.861471 21.088048
11155 4 3.671649 37.612826 28.472646
11156 4 12.643444 53.182595 28.472646
11157 4 12.643369 42.934573 35.857245
11158 4 3.408465 58.504342 35.857245
11159 4 12.6433 32.685928 43.242615
11160 4 3.408396 48.255697 43.242615
11161 4 3.408321 38.007675 50.627213
11162 4 12.380116 53.577444 50.627213
11163 4 35.825757 34.123952 26.541029
11164 4 8.384153 49.693721 26.541029
11165 4 8.384083 39.445076 33.926399
11166 4 35.562579 55.014845 33.926399
11167 4 35.562868 44.766823 41.310997
11168 4 8.121264 60.336593 41.310997
11169 4 35.562798 34.518178 48.695595
11170 4 8.121194 50.087948 48.695595
11171 4 8.121119 39.839926 56.080965
11172 4 17.092915 55.409695 56.080965
11173 4 0.490424 34.700033 24.607096
11174 4 9.46222 50.269803 24.607096
11175 4 9.462514 40.021158 31.991694
11176 4 0.22761 55.590927 31.991694
11177 4 0.227535 45.342905 39.376292
11178 4 9.199331 60.912674 39.376292
11179 4 0.227465 35.09426 46.761662
11180 4 9.199261 50.664029 46.761662
11181 4 9.199186 40.416007 54.146261
11182 4 18.170982 55.985776 54.146261
11183 4 9.276525 41.045648 22.120611
11184 4 0.04162 56.615418 22.120611
11185 4 0.041551 46.366773 29.505209
11186 4 9.013347 61.936542 29.505209
11187 4 0.041476 36.118751 36.889807
11188 4 9.013272 51.68852 36.889807
11189 4 9.013566 41.439875 44.275177
11190 4 -0.221338 57.009644 44.275177
11191 4 17.985287 46.761622 51.659775
11192 4 9.2766 0.052314 51.659775
11193 4 8.624684 38.938747 21.4523
11194 4 35.80318 54.508517 21.4523
11195 4 35.803105 44.260494 28.836899
11196 4 8.361501 59.830264 28.836899
11197 4 35.803035 34.01185 36.221497
11198 4 8.361431 49.581619 36.221497
11199 4 8.36172 39.333597 43.606867
11200 4 35.540216 54.903366 43.606867
11201 4 17.333441 44.655344 50.991465
11202 4 8.098537 60.225113 50.991465
11203 4 14.707908 42.903433 26.181407
11204 4 5.473004 58.473203 26.181407
11205 4 14.707839 32.654788 33.566005
11206 4 5.472934 48.224558 33.566005
11207 4 5.473224 37.976536 40.951375
11208 4 14.445019 53.546305 40.951375
11209 4 14.44495 43.29766 48.335973
11210 4 5.210045 58.867429 48.335973
11211 4 14.444875 33.049638 55.720571
11212 4 5.209971 48.619407 55.720571
11213 4 12.666642 41.817909 25.84648
11214 4 3.431737 57.387678 25.84648
11215 4 12.666567 31.569887 33.231078
11216 4 3.431662 47.139656 33.231078
11217 4 3.431593 36.891011 40.615676
11218 4 12.403389 52.46078 40.615676
11219 4 12.403314 42.212758 48.001046
11220 4 3.168409 57.782528 48.001046
11221 4 12.403244 31.964113 55.385644
11222 4 3.16834 47.533883 55.385644
11223 4 5.256031 43.211092 25.121834
11224 4 14.227827 58.780861 25.121834
11225 4 5.255956 32.96307 32.506432
11226 4 14.227752 48.532839 32.506432
11227 4 14.227683 38.284194 39.89103
11228 4 4.992778 53.853963 39.89103
11229 4 4.993068 43.605941 47.2764
11230 4 13.964863 59.175711 47.2764
11231 4 4.992998 33.357296 54.660998
11232 4 13.964794 48.927066 54.660998
11233 4 4.024873 43.644554 27.051136
11234 4 12.996669 59.214324 27.051136
11235 4 4.024804 33.395909 34.435734
11236 4 12.996599 48.965679 34.435734
11237 4 12.996524 38.717657 41.821104
11238 4 3.76162 54.287426 41.821104
11239 4 3.761545 44.039404 49.205703
11240 4 12.733341 59.609173 49.205703
11241 4 3.761476 33.790759 56.590301
11242 4 12.733271 49.360528 56.590301
11243 4 35.196385 40.605958 22.759596
11244 4 7.754781 56.175727 22.759596
11245 4 7.754706 45.927705 30.144966
11246 4 34.933201 61.497475 30.144966
11247 4 7.754636 35.67906 37.529564
11248 4 34.933132 51.24883 37.529564
11249 4 16.726357 41.000808 44.914162
11250 4 7.491453 56.570577 44.914162
11251 4 7.491747 46.321932 52.299532
11252 4 16.463543 61.891701 52.299532
11253 4 0.96554 40.354973 21.928452
11254 4 9.937336 55.924743 21.928452
11255 4 9.93763 45.676098 29.31305
11256 4 0.702726 61.245867 29.31305
11257 4 9.937555 35.428076 36.69842
11258 4 0.702651 50.997845 36.69842
11259 4 18.909281 40.7492 44.083019
11260 4 9.674377 56.318969 44.083019
11261 4 9.674302 46.070947 51.467617
11262 4 18.646098 61.640716 51.467617
11263 2 8.859974 34.880643 24.111651
11264 2 -0.37493 50.450412 24.111651
11265 2 36.038395 40.20239 31.496249
11266 2 8.596791 55.772159 31.496249
11267 2 8.596721 45.523514 38.881619
11268 2 35.775217 61.093283 38.881619
11269 2 8.597011 35.275492 46.266217
11270 2 35.775506 50.845261 46.266217
11271 2 35.775437 40.596616 53.650816
11272 2 8.333833 56.166386 53.650816
11273 2 8.221709 36.554081 25.741526
11274 2 35.400205 52.123851 25.741526
11275 2 35.400135 41.875206 33.126896
11276 2 7.958531 57.444975 33.126896
11277 2 7.958456 47.196953 40.511494
11278 2 35.663169 0.487645 40.511494
11279 2 7.958387 36.948308 47.896092
11280 2 35.136882 52.518077 47.896092
11281 2 35.137172 42.270055 55.281462
11282 2 7.695567 57.839824 55.281462
11283 2 9.954497 34.414172 26.81962
11284 2 0.719593 49.983942 26.81962
11285 2 0.719523 39.735297 34.204218
11286 2 9.691319 55.305066 34.204218
11287 2 9.691244 45.057044 41.588816
11288 2 0.45634 60.626813 41.588816
11289 2 9.691539 34.808399 48.974186
11290 2 0.456634 50.378168 48.974186
11291 2 0.45656 40.130146 56.358785
11292 2 9.428355 55.699915 56.358785
11293 2 10.089184 33.729725 24.66266
11294 2 0.854279 49.299495 24.66266
11295 2 0.85421 39.05085 32.047258
11296 2 9.826006 54.620619 32.047258
11297 2 9.826295 44.372597 39.432628
11298 2 0.591391 59.942366 39.432628
11299 2 9.826225 34.123952 46.817226
11300 2 0.591321 49.693721 46.817226
11301 2 0.591246 39.445699 54.201824
11302 2 9.563042 55.015468 54.201824
11303 2 8.456871 36.088234 27.497963
11304 2 35.635366 51.658003 27.497963
11305 2 35.635297 41.409358 34.882561
11306 2 8.193692 56.979127 34.882561
11307 2 8.193618 46.731105 42.267159
11308 2 35.89833 0.021798 42.267159
11309 2 8.193548 36.48246 49.652529
11310 2 35.372044 52.05223 49.652529
11311 2 35.372333 41.804208 57.037127
11312 2 7.930729 57.373977 57.037127
11313 2 4.157545 31.045497 21.143612
11314 2 13.12934 46.615266 21.143612
11315 2 13.129635 36.366621 28.52821
11316 2 3.894731 51.936391 28.52821
11317 2 3.894656 41.688369 35.91358
11318 2 12.866451 57.258138 35.91358
11319 2 3.894586 31.439724 43.298178
11320 2 12.866382 47.009493 43.298178
11321 2 12.866307 36.761471 50.682777
11322 2 3.631403 52.33124 50.682777
11323 2 5.959816 31.197458 22.426984
11324 2 14.931612 46.767227 22.426984
11325 2 14.931901 36.519205 29.811582
11326 2 5.696997 52.088974 29.811582
11327 2 5.696927 41.840329 37.196952
11328 2 14.668723 57.410099 37.196952
11329 2 5.696853 31.592307 44.58155
11330 2 14.668648 47.162077 44.58155
11331 2 14.668579 36.913432 51.966149
11332 2 5.433674 52.483201 51.966149
11333 2 4.455252 33.606413 22.550459
11334 2 13.427048 49.176182 22.550459
11335 2 13.427342 38.927537 29.935058
11336 2 4.192438 54.497306 29.935058
11337 2 4.192363 44.249284 37.319656
11338 2 13.164159 59.819053 37.319656
11339 2 4.192294 34.000639 44.705026
11340 2 13.164089 49.570409 44.705026
11341 2 13.164014 39.322386 52.089624
11342 2 3.92911 54.892156 52.089624
11343 2 3.048841 32.371419 21.049462
11344 2 12.020637 47.941188 21.049462
11345 2 12.020568 37.692543 28.43406
11346 2 2.785663 53.262312 28.43406
11347 2 2.785588 43.01429 35.81943
11348 2 11.757384 58.584059 35.81943
11349 2 2.785519 32.765645 43.204028
11350 2 11.757315 48.335414 43.204028
11351 2 11.75724 38.087392 50.588627
11352 2 2.522335 53.657162 50.588627
11353 2 6.273542 32.509055 23.402439
11354 2 15.245337 48.078825 23.402439
11355 2 15.245268 37.83018 30.787809
11356 2 6.010364 53.399949 30.787809
11357 2 6.010289 43.151927 38.172408
11358 2 14.982084 58.721696 38.172408
11359 2 6.010219 32.903282 45.557006
11360 2 14.982015 48.473051 45.557006
11361 2 14.982304 38.225029 52.941604
11362 2 5.7474 53.794798 52.941604
11363 2 11.962527 32.451759 21.511723
11364 2 2.727623 48.021528 21.511723
11365 2 2.727553 37.772883 28.896321
11366 2 11.699349 53.342652 28.896321
11367 2 11.699274 43.09463 36.281691
11368 2 2.46437 58.664399 36.281691
11369 2 11.699204 32.845985 43.666289
11370 2 2.4643 48.415754 43.666289
11371 2 2.464225 38.167732 51.050888
11372 2 11.436021 53.737502 51.050888
11373 2 13.0461 32.462346 20.111049
11374 2 3.811196 48.032115 20.111049
11375 2 3.811127 37.78347 27.495648
11376 2 12.782922 53.35324 27.495648
11377 2 12.783212 43.105218 34.880246
11378 2 3.548307 58.674987 34.880246
11379 2 12.783142 32.856573 42.265616
11380 2 3.548238 48.426342 42.265616
11381 2 3.548163 38.17832 49.650214
11382 2 12.519959 53.748089 49.650214
11383 2 14.924197 32.000858 21.536418
11384 2 5.689293 47.570627 21.536418
11385 2 5.689224 37.321982 28.921016
11386 2 14.661019 52.891752 28.921016
11387 2 14.660944 42.64373 36.305614
11388 2 5.42604 58.213499 36.305614
11389 2 14.660875 32.395085 43.690984
11390 2 5.425971 47.964854 43.690984
11391 2 5.42626 37.716832 51.075583
11392 2 14.398056 53.286601 51.075583
11393 2 12.966641 32.51466 23.694922
11394 2 3.731737 48.08443 23.694922
11395 2 3.731667 37.835785 31.080292
11396 2 12.703463 53.405554 31.080292
11397 2 12.703388 43.157532 38.46489
11398 2 3.468484 58.727301 38.46489
11399 2 12.703319 32.908887 45.849488
11400 2 3.468414 48.478656 45.849488
11401 2 3.468704 38.230634 53.234086
11402 2 12.440499 53.800403 53.234086
11403 2 14.681567 32.187073 23.774409
11404 2 5.446663 47.756842 23.774409
11405 2 5.446958 37.508197 31.159007
11406 2 14.418753 53.077966 31.159007
11407 2 14.418678 42.829944 38.544377
11408 2 5.183774 58.399713 38.544377
11409 2 14.418609 32.581299 45.928975
11410 2 5.183705 48.151068 45.928975
11411 2 5.18363 37.903046 53.313574
11412 2 14.155425 53.472815 53.313574
11413 2 -0.260789 33.192257 26.635179
11414 2 8.711006 48.762026 26.635179
11415 2 8.710931 38.514004 34.020549
11416 2 35.889427 54.083773 34.020549
11417 2 35.889722 43.835128 41.405147
11418 2 8.448117 59.404898 41.405147
11419 2 35.889647 33.587106 48.789745
11420 2 8.448043 49.156875 48.789745
11421 2 8.447973 38.908231 56.175115
11422 2 17.419769 54.478 56.175115
11423 2 1.027708 35.410638 24.136346
11424 2 9.999504 50.980407 24.136346
11425 2 9.999793 40.732385 31.520944
11426 2 0.764888 56.302154 31.520944
11427 2 0.764819 46.053509 38.905542
11428 2 9.736615 61.623278 38.905542
11429 2 0.764744 35.805487 46.290912
11430 2 9.73654 51.375256 46.290912
11431 2 9.73647 41.126611 53.675511
11432 2 18.708266 56.69638 53.675511
11433 2 35.898167 36.06955 25.765449
11434 2 8.456562 51.639319 25.765449
11435 2 8.456852 41.391297 33.150819
11436 2 35.635347 56.961067 33.150819
11437 2 35.635278 46.712422 40.535417
11438 2 8.719891 0.003114 40.535417
11439 2 35.635203 36.4644 47.920015
11440 2 8.193599 52.034169 47.920015
11441 2 8.193529 41.785524 55.305385
11442 2 17.165325 57.355293 55.305385
11443 2 0.885577 33.787022 24.412622
11444 2 9.857373 49.356791 24.412622
11445 2 9.857298 39.108769 31.797992
11446 2 0.622393 54.678538 31.797992
11447 2 0.622324 44.429893 39.18259
11448 2 9.59412 59.999663 39.18259
11449 2 0.622249 34.181871 46.567189
11450 2 9.594045 49.751641 46.567189
11451 2 9.594339 39.502996 53.952559
11452 2 18.566135 55.072765 53.952559
11453 2 35.431413 34.46711 27.386063
11454 2 7.989809 50.036879 27.386063
11455 2 7.98974 39.788234 34.770661
11456 2 35.168235 55.358003 34.770661
11457 2 35.168525 45.109981 42.156031
11458 2 7.72692 60.67975 42.156031
11459 2 35.168455 34.861336 49.54063
11460 2 7.726851 50.431105 49.54063
11461 2 7.726776 40.183083 56.925228
11462 2 16.698572 55.752852 56.925228
11463 2 9.606118 41.901363 21.74787
11464 2 0.371214 57.471132 21.74787
11465 2 0.371139 47.22311 29.133239
11466 2 9.869152 0.513802 29.133239
11467 2 0.37107 36.974465 36.517838
11468 2 9.342865 52.544234 36.517838
11469 2 9.342791 42.296212 43.902436
11470 2 0.107886 57.865982 43.902436
11471 2 18.314881 47.617337 51.287806
11472 2 9.606194 0.908029 51.287806
11473 2 8.872285 41.137821 22.991884
11474 2 -0.362619 56.707591 22.991884
11475 2 -0.362694 46.459569 30.377254
11476 2 8.609102 62.029338 30.377254
11477 2 36.050637 36.210924 37.761852
11478 2 8.609032 51.780693 37.761852
11479 2 8.608958 41.532671 45.14645
11480 2 35.787453 57.10244 45.14645
11481 2 17.581048 46.853795 52.53182
11482 2 8.872361 0.144487 52.53182
11483 2 8.173335 38.616142 22.293476
11484 2 35.351831 54.185911 22.293476
11485 2 35.351756 43.937889 29.678846
11486 2 7.910152 59.507658 29.678846
11487 2 35.351686 33.689244 37.063444
11488 2 7.910082 49.259013 37.063444
11489 2 7.910007 39.010991 44.448043
11490 2 35.088503 54.58076 44.448043
11491 2 16.881733 44.332115 51.833413
11492 2 7.646829 59.901885 51.833413
11493 2 9.66935 40.321966 20.350283
11494 2 0.434445 55.891735 20.350283
11495 2 0.434371 45.643713 27.734881
11496 2 9.406166 61.213482 27.734881
11497 2 0.434301 35.395068 35.120251
11498 2 9.406097 50.964837 35.120251
11499 2 9.406022 40.716815 42.504849
11500 2 0.171117 56.286584 42.504849
11501 2 18.377748 46.037939 49.889447
11502 2 9.142844 61.607708 49.889447
11503 2 8.709229 38.370762 20.570223
11504 2 35.887724 53.940531 20.570223
11505 2 35.887655 43.691886 27.955593
11506 2 8.446051 59.261656 27.955593
11507 2 35.88758 33.443864 35.340191
11508 2 8.445976 49.013634 35.340191
11509 2 8.44627 38.764989 42.72479
11510 2 35.624766 54.334758 42.72479
11511 2 17.417991 44.086736 50.11016
11512 2 8.183087 59.656505 50.11016
11513 2 15.314101 43.517505 25.726863
11514 2 6.079196 59.087274 25.726863
11515 2 15.314026 33.269483 33.112233
11516 2 6.079122 48.839252 33.112233
11517 2 6.079052 38.590607 40.496831
11518 2 15.050848 54.160376 40.496831
11519 2 15.051137 43.912354 47.881429
11520 2 5.816233 59.482124 47.881429
11521 2 15.051067 33.663709 55.266799
11522 2 5.816163 49.233479 55.266799
11523 2 15.014647 42.283757 26.968562
11524 2 5.779743 57.853526 26.968562
11525 2 15.014572 32.035734 34.35316
11526 2 5.779668 47.605504 34.35316
11527 2 5.779962 37.356859 41.737759
11528 2 14.751758 52.926628 41.737759
11529 2 14.751683 42.678606 49.123129
11530 2 5.516779 58.248375 49.123129
11531 2 14.751614 32.429961 56.507727
11532 2 5.516709 47.99973 56.507727
11533 2 12.851603 41.259888 26.697688
11534 2 3.616699 56.829658 26.697688
11535 2 12.851528 31.011866 34.083058
11536 2 3.616624 46.581636 34.083058
11537 2 3.616554 36.332991 41.467656
11538 2 12.58835 51.90276 41.467656
11539 2 12.588639 41.654738 48.852254
11540 2 3.353735 57.224507 48.852254
11541 2 12.588569 31.406093 56.236853
11542 2 3.353665 46.975862 56.236853
11543 2 13.360895 43.257801 24.606324
11544 2 4.125991 58.827571 24.606324
11545 2 13.360826 33.009156 31.991694
11546 2 4.125922 48.578926 31.991694
11547 2 4.125847 38.330903 39.376292
11548 2 13.097642 53.900673 39.376292
11549 2 13.097573 43.652028 46.760891
11550 2 3.862668 59.221797 46.760891
11551 2 13.097862 33.404006 54.146261
11552 2 3.862958 48.973775 54.146261
11553 2 11.813332 41.791752 25.324025
11554 2 2.578428 57.361521 25.324025
11555 2 11.813258 31.54373 32.708623
11556 2 2.578353 47.113499 32.708623
11557 2 2.578284 36.864854 40.093993
11558 2 11.550079 52.434623 40.093993
11559 2 11.550369 42.186601 47.478591
11560 2 2.315464 57.75637 47.478591
11561 2 11.550299 31.937956 54.863189
11562 2 2.315395 47.507725 54.863189
11563 2 3.309027 43.165628 27.632242
11564 2 12.280823 58.735397 27.632242
11565 2 3.308952 32.917606 35.017612
11566 2 12.280748 48.487375 35.017612
11567 2 12.280678 38.23873 42.40221
11568 2 3.045774 53.8085 42.40221
11569 2 3.046063 43.560478 49.786809
11570 2 12.017859 59.130247 49.786809
11571 2 3.045993 33.311833 57.172179
11572 2 12.017789 48.881602 57.172179
11573 2 4.655132 44.340834 27.508767
11574 2 13.626928 59.910604 27.508767
11575 2 4.655063 34.09219 34.893365
11576 2 13.626858 49.661959 34.893365
11577 2 13.627148 39.413937 42.278735
11578 2 4.392243 54.983706 42.278735
11579 2 4.392174 44.735061 49.663333
11580 2 13.363969 60.30483 49.663333
11581 2 4.392099 34.487039 57.047931
11582 2 13.363895 50.056808 57.047931
11583 2 5.278359 42.766419 24.202714
11584 2 14.250155 58.336189 24.202714
11585 2 5.27829 32.517774 31.587312
11586 2 14.250085 48.087544 31.587312
11587 2 14.250011 37.839522 38.972682
11588 2 5.015106 53.409291 38.972682
11589 2 5.015401 43.160646 46.35728
11590 2 13.987197 58.730415 46.35728
11591 2 5.015326 32.912624 53.741879
11592 2 13.987122 48.482393 53.741879
11593 2 6.119581 43.792156 25.4475
11594 2 15.091377 59.361925 25.4475
11595 2 6.119506 33.544134 32.83287
11596 2 15.091302 49.113903 32.83287
11597 2 15.091233 38.865258 40.217468
11598 2 5.856328 54.435027 40.217468
11599 2 5.856253 44.187005 47.602066
11600 2 14.828049 59.756774 47.602066
11601 2 5.856548 33.93836 54.987436
11602 2 14.828344 49.508129 54.987436
11603 2 3.391585 42.531004 25.486858
11604 2 12.363381 58.100774 25.486858
11605 2 3.391875 32.282982 32.871456
11606 2 12.36367 47.852752 32.871456
11607 2 12.363601 37.604107 40.256054
11608 2 3.128697 53.173876 40.256054
11609 2 3.128622 42.925854 47.641424
11610 2 12.100417 58.495623 47.641424
11611 2 3.128552 32.677209 55.026022
11612 2 12.100348 48.246978 55.026022
11613 2 34.259349 40.059771 22.883071
11614 2 6.817745 55.62954 22.883071
11615 2 6.817675 45.380895 30.267669
11616 2 33.996171 60.950664 30.267669
11617 2 6.817965 35.132873 37.653039
11618 2 33.99646 50.702642 37.653039
11619 2 15.789691 40.453997 45.037638
11620 2 6.554786 56.023766 45.037638
11621 2 6.554712 45.775744 52.422236
11622 2 15.526507 61.345514 52.422236
11623 2 1.647209 39.707271 21.679186
11624 2 10.619005 55.27704 21.679186
11625 2 10.618936 45.028395 29.063785
11626 2 1.384031 60.598165 29.063785
11627 2 10.618861 34.780373 36.448383
11628 2 1.383956 50.350143 36.448383
11629 2 19.590951 40.101498 43.832981
11630 2 10.356047 55.671267 43.832981
11631 2 10.355972 45.423245 51.218351
11632 2 19.327767 60.993014 51.218351
11633 2 35.24949 41.474751 23.305974
11634 2 7.807886 57.044521 23.305974
11635 2 7.807811 46.796498 30.690572
11636 2 35.512524 0.087191 30.690572
11637 2 7.807742 36.547854 38.075942
11638 2 34.986237 52.117623 38.075942
11639 2 16.779462 41.869601 45.460541
11640 2 7.544558 57.43937 45.460541
11641 2 7.544853 47.190725 52.845139
11642 2 17.042866 0.481417 52.845139
11643 2 1.209686 41.325282 22.122154
11644 2 10.181482 56.895051 22.122154
11645 2 10.181407 46.647029 29.506752
11646 2 0.946503 62.216798 29.506752
11647 2 10.181332 36.399007 36.892122
11648 2 0.946428 51.968776 36.892122
11649 2 19.153058 41.720131 44.276721
11650 2 9.918154 57.2899 44.276721
11651 2 9.918443 47.041878 51.661319
11652 2 19.416456 0.33257 51.661319
11653 2 35.811845 39.08884 21.49706
11654 2 8.370241 54.658609 21.49706
11655 2 8.370166 44.410587 28.88243
11656 2 35.548662 59.980356 28.88243
11657 2 8.370097 34.161942 36.267028
11658 2 35.548592 49.731711 36.267028
11659 2 17.342182 39.483689 43.651627
11660 2 8.107277 55.053458 43.651627
11661 2 8.107208 44.804814 51.036997
11662 2 17.079003 60.374583 51.036997
11663 6 0.069988 34.769786 19.999921
11664 6 9.041784 50.339555 19.999921
11665 6 9.042078 40.09091 27.38452
11666 6 -0.192826 55.660679 27.38452
11667 6 -0.192901 45.412657 34.769118
11668 6 8.778895 60.982427 34.769118
11669 6 -0.19297 35.164012 42.154488
11670 6 8.778825 50.733782 42.154488
11671 6 8.77875 40.48576 49.539086
11672 6 -0.456154 56.055529 49.539086
11673 6 4.413962 37.717455 23.819169
11674 6 13.385758 53.287224 23.819169
11675 6 13.385683 43.039202 31.203767
11676 6 4.150779 58.608971 31.203767
11677 6 13.385977 32.790557 38.589137
11678 6 4.151073 48.360326 38.589137
11679 6 4.150998 38.112304 45.973735
11680 6 13.122794 53.682073 45.973735
11681 6 13.122724 43.433428 53.358333
11682 6 3.88782 59.003197 53.358333
11683 6 13.755184 37.404814 24.067663
11684 6 4.52028 52.974583 24.067663
11685 6 4.52021 42.725938 31.452261
11686 6 13.492006 58.295707 31.452261
11687 6 4.520135 32.477916 38.837631
11688 6 13.491931 48.047685 38.837631
11689 6 13.491862 37.79904 46.222229
11690 6 4.256957 53.368809 46.222229
11691 6 4.257247 43.120787 53.606828
11692 6 13.229042 58.690557 53.606828
11693 6 9.146889 34.366217 20.168928
11694 6 -0.088015 49.935987 20.168928
11695 6 -0.088085 39.687342 27.553527
11696 6 8.883711 55.257111 27.553527
11697 6 8.884 45.009089 34.938125
11698 6 -0.350904 60.578858 34.938125
11699 6 8.883931 34.760444 42.322723
11700 6 -0.350974 50.330213 42.322723
11701 6 36.062351 40.082191 49.708093
11702 6 8.620747 55.65196 49.708093
11703 6 -0.213304 45.37093 24.293005
11704 6 8.758492 60.9407 24.293005
11705 6 -0.213373 35.122285 31.677604
11706 6 8.758422 50.692055 31.677604
11707 6 8.758347 40.444033 39.062202
11708 6 35.936843 56.013802 39.062202
11709 6 17.730074 45.765157 46.447572
11710 6 8.495169 61.334926 46.447572
11711 6 17.730363 35.517135 53.83217
11712 6 8.495459 51.086904 53.83217
11713 6 13.722171 42.691062 20.381923
11714 6 4.487267 58.260831 20.381923
11715 6 13.722102 32.442417 27.766522
11716 6 4.487197 48.012186 27.766522
11717 6 4.487487 37.764164 35.15112
11718 6 13.459282 53.333933 35.15112
11719 6 13.459213 43.085288 42.53649
11720 6 4.224308 58.655057 42.53649
11721 6 13.459138 32.837266 49.921088
11722 6 4.224234 48.407035 49.921088
11723 6 4.391205 43.082797 20.254589
11724 6 13.363 58.652566 20.254589
11725 6 4.39113 32.834775 27.639188
11726 6 13.362926 48.404544 27.639188
11727 6 13.362856 38.155899 35.024558
11728 6 4.127952 53.725669 35.024558
11729 6 4.127877 43.477646 42.409156
11730 6 13.099673 59.047416 42.409156
11731 6 4.128171 33.229002 49.793754
11732 6 13.099967 48.798771 49.793754
11733 6 8.94108 45.450648 24.068435
11734 6 -0.293825 61.020417 24.068435
11735 6 8.941369 35.202625 31.453033
11736 6 -0.293535 50.772395 31.453033
11737 6 -0.293605 40.52375 38.838403
11738 6 8.678191 56.093519 38.838403
11739 6 8.678116 45.845497 46.223001
11740 6 35.856612 61.415266 46.223001
11741 6 8.678046 35.596852 53.607599
11742 6 17.649842 51.166621 53.607599
11743 3 11.445475 38.396919 25.913619
11744 3 2.21057 53.966689 25.913619
11745 3 2.210501 43.718044 33.298218
11746 3 11.182297 59.287813 33.298218
11747 3 2.21079 33.470022 40.683588
11748 3 11.182586 49.039791 40.683588
11749 3 11.182516 38.791146 48.068186
11750 3 1.947612 54.360915 48.068186
11751 3 1.947537 44.112893 55.452784
11752 3 10.919333 59.682662 55.452784
11753 3 7.147829 38.887056 25.485314
11754 3 16.119625 54.456825 25.485314
11755 3 16.119555 44.20818 32.870684
11756 3 6.884651 59.777949 32.870684
11757 3 16.119845 33.960158 40.255283
11758 3 6.88494 49.529927 40.255283
11759 3 6.884871 39.281282 47.639881
11760 3 15.856667 54.851051 47.639881
11761 3 15.856592 44.603029 55.025251
11762 3 6.621687 60.172799 55.025251
11763 3 4.44634 35.178337 25.614963
11764 3 13.418136 50.748106 25.614963
11765 3 13.418061 40.500084 32.999562
11766 3 4.183156 56.069853 32.999562
11767 3 4.183082 45.821831 40.38416
11768 3 13.154877 61.3916 40.38416
11769 3 4.183376 35.573186 47.76953
11770 3 13.155172 51.142955 47.76953
11771 3 13.155097 40.894933 55.154128
11772 3 3.920193 56.464702 55.154128
11773 3 6.943361 35.892678 22.080481
11774 3 15.915157 51.462447 22.080481
11775 3 15.915082 41.214425 29.46508
11776 3 6.680178 56.784194 29.46508
11777 3 6.680467 46.536172 36.849678
11778 3 15.652263 62.105941 36.849678
11779 3 6.680398 36.287527 44.235048
11780 3 15.652193 51.857296 44.235048
11781 3 15.652118 41.609274 51.619646
11782 3 6.417214 57.179043 51.619646
11783 3 2.428978 36.004157 22.0172
11784 3 11.400774 51.573926 22.0172
11785 3 11.401069 41.325282 29.401798
11786 3 2.166164 56.895051 29.401798
11787 3 2.16609 46.647029 36.786397
11788 3 11.137885 62.216798 36.786397
11789 3 2.166015 36.399007 44.171767
11790 3 11.13781 51.968776 44.171767
11791 3 11.137741 41.720131 51.556365
11792 3 1.902837 57.2899 51.556365
11793 3 11.319933 35.801127 21.867486
11794 3 2.085029 51.370897 21.867486
11795 3 2.084959 41.122252 29.252085
11796 3 11.056755 56.692021 29.252085
11797 3 11.05668 46.443999 36.637454
11798 3 1.821776 62.013768 36.637454
11799 3 11.056975 36.195354 44.022053
11800 3 1.82207 51.765123 44.022053
11801 3 1.821995 41.517101 51.406651
11802 3 10.793791 57.08687 51.406651
11803 3 -0.148921 32.536458 22.110578
11804 3 8.822874 48.106227 22.110578
11805 3 8.822805 37.857583 29.495177
11806 3 -0.412099 53.427352 29.495177
11807 3 36.001226 43.17933 36.879775
11808 3 8.559621 58.749099 36.879775
11809 3 17.794456 32.930685 44.265145
11810 3 8.559552 48.500454 44.265145
11811 3 8.559841 38.252432 51.649743
11812 3 17.531637 53.822201 51.649743
11813 3 15.644485 36.306833 21.717001
11814 3 6.409581 51.876603 21.717001
11815 3 6.409506 41.628581 29.102371
11816 3 15.381302 57.19835 29.102371
11817 3 6.409436 31.379936 36.486969
11818 3 15.381232 46.949705 36.486969
11819 3 15.381521 36.701683 43.871567
11820 3 6.146617 52.271452 43.871567
11821 3 6.146548 42.022807 51.256937
11822 3 15.118343 57.592576 51.256937
11823 3 16.237161 38.6068 25.358752
11824 3 7.002257 54.176569 25.358752
11825 3 7.002182 43.928547 32.74335
11826 3 15.973978 59.498316 32.74335
11827 3 7.002113 33.679902 40.127949
11828 3 15.973908 49.249671 40.127949
11829 3 15.973833 39.001649 47.513319
11830 3 6.738929 54.571418 47.513319
11831 3 6.739224 44.322773 54.897917
11832 3 15.711019 59.892543 54.897917
11833 3 9.431132 32.056286 21.997907
11834 3 0.196228 47.626056 21.997907
11835 3 0.196158 37.377411 29.383277
11836 3 9.167954 52.94718 29.383277
11837 3 9.167879 42.699158 36.767875
11838 3 -0.067025 58.268927 36.767875
11839 3 9.168173 32.450513 44.152474
11840 3 -0.066731 48.020282 44.152474
11841 3 -0.066806 37.77226 51.537072
11842 3 8.90499 53.342029 51.537072
11843 3 14.094539 35.122908 26.076453
11844 3 4.859634 50.692677 26.076453
11845 3 4.859929 40.444033 33.461051
11846 3 13.831725 56.013802 33.461051
11847 3 13.83165 45.76578 40.846421
11848 3 4.596745 61.335549 40.846421
11849 3 13.83158 35.517135 48.231019
11850 3 4.596676 51.086904 48.231019
11851 3 4.596601 40.838882 55.615617
11852 3 13.568397 56.408651 55.615617
11853 3 2.164543 38.814189 25.588725
11854 3 11.136339 54.383958 25.588725
11855 3 11.136264 44.135936 32.974095
11856 3 1.90136 59.705705 32.974095
11857 3 11.136194 33.887291 40.358693
11858 3 1.90129 49.457061 40.358693
11859 3 1.901215 39.209038 47.743291
11860 3 10.873011 54.778808 47.743291
11861 3 10.872941 44.530163 55.128661
11862 3 1.638037 60.099932 55.128661
11863 3 7.372884 32.118566 25.870403
11864 3 16.34468 47.688335 25.870403
11865 3 16.344605 37.440313 33.255773
11866 3 7.109701 53.010082 33.255773
11867 3 7.109626 42.76206 40.640371
11868 3 16.081422 58.331829 40.640371
11869 3 7.109556 32.513415 48.02497
11870 3 16.081352 48.083184 48.02497
11871 3 16.081641 37.835162 55.41034
11872 3 6.846737 53.404931 55.41034
11873 3 11.439025 31.402979 25.836447
11874 3 2.20412 46.972748 25.836447
11875 3 2.204046 36.724726 33.221046
11876 3 11.175841 52.294495 33.221046
11877 3 11.175772 42.04585 40.605644
11878 3 1.940867 57.61562 40.605644
11879 3 11.175697 31.797828 47.991014
11880 3 1.940793 47.367598 47.991014
11881 3 1.941087 37.118953 55.375612
11882 3 10.912883 52.688722 55.375612
11883 3 7.02418 44.428025 21.91379
11884 3 15.995975 59.997794 21.91379
11885 3 7.02411 34.17938 29.298388
11886 3 15.995906 49.749149 29.298388
11887 3 15.995831 39.501127 36.682986
11888 3 6.760927 55.070897 36.682986
11889 3 6.760857 44.822252 44.068356
11890 3 15.732653 60.392021 44.068356
11891 3 6.760782 34.57423 51.452954
11892 3 15.732578 50.143999 51.452954
11893 3 13.614348 40.411647 22.570524
11894 3 4.379444 55.981417 22.570524
11895 3 4.379369 45.733395 29.955122
11896 3 13.351165 61.303164 29.955122
11897 3 4.379299 35.48475 37.339721
11898 3 13.351095 51.054519 37.339721
11899 3 13.351384 40.806497 44.725091
11900 3 4.11648 56.376266 44.725091
11901 3 4.11641 46.127621 52.109689
11902 3 13.088206 61.69739 52.109689
11903 3 11.450043 44.40685 21.977071
11904 3 2.215139 59.976619 21.977071
11905 3 11.449973 34.158205 29.361669
11906 3 2.215069 49.727975 29.361669
11907 3 2.214994 39.479952 36.747039
11908 3 11.18679 55.049722 36.747039
11909 3 11.18672 44.801077 44.131637
11910 3 1.951816 60.370846 44.131637
11911 3 11.18701 34.553055 51.516235
11912 3 1.952105 50.122824 51.516235
11913 3 2.482067 31.186248 25.80635
11914 3 11.453863 46.756017 25.80635
11915 3 11.454152 36.507995 33.19172
11916 3 2.219248 52.077764 33.19172
11917 3 2.219178 41.829119 40.576318
11918 3 11.190974 57.398888 40.576318
11919 3 2.219103 31.581097 47.960917
11920 3 11.190899 47.150866 47.960917
11921 3 11.19083 36.902221 55.346287
11922 3 1.955925 52.471991 55.346287
11923 3 15.662419 44.182646 22.521906
11924 3 6.427515 59.752415 22.521906
11925 3 15.662344 33.934623 29.906504
11926 3 6.42744 49.504393 29.906504
11927 3 6.42737 39.255748 37.291874
11928 3 15.399166 54.825517 37.291874
11929 3 15.399455 44.577495 44.676472
11930 3 6.164551 60.147264 44.676472
11931 3 15.399386 34.32885 52.06107
11932 3 6.164481 49.898619 52.06107
11933 3 4.670344 40.558003 22.085112
11934 3 13.64214 56.127773 22.085112
11935 3 13.642435 45.879128 29.470482
11936 3 4.40753 61.448897 29.470482
11937 3 13.64236 35.631106 36.85508
11938 3 4.407456 51.200875 36.85508
11939 3 4.407386 40.95223 44.239678
11940 3 13.379182 56.521999 44.239678
11941 3 13.379107 46.273977 51.625048
11942 3 4.144203 61.843746 51.625048
11943 3 8.571943 42.85361 25.441326
11944 3 17.543739 58.423379 25.441326
11945 3 8.571868 32.605588 32.825924
11946 3 17.543664 48.175357 32.825924
11947 3 17.543958 37.926712 40.210523
11948 3 8.309054 53.496482 40.210523
11949 3 8.308979 43.248459 47.595893
11950 3 17.280775 58.818229 47.595893
11951 3 8.30891 32.999815 54.980491
11952 3 17.280705 48.569584 54.980491
11953 3 1.665254 43.906749 22.058101
11954 3 10.63705 59.476518 22.058101
11955 3 1.665185 33.658104 29.4427
11956 3 10.63698 49.227874 29.4427
11957 3 10.636906 38.979851 36.82807
11958 3 1.402001 54.549621 36.82807
11959 3 1.402296 44.300976 44.212668
11960 3 10.374092 59.870745 44.212668
11961 3 1.402221 34.052954 51.597266
11962 3 10.374017 49.622723 51.597266
11963 3 0.099592 42.729675 25.591812
11964 3 9.071388 58.299444 25.591812
11965 3 0.099522 32.48103 32.97641
11966 3 9.071318 48.050799 32.97641
11967 3 9.071243 37.802777 40.361008
11968 3 -0.163661 53.372546 40.361008
11969 3 -0.163731 43.123901 47.746378
11970 3 8.808065 58.69367 47.746378
11971 3 -0.163441 32.875879 55.130977
11972 3 8.808354 48.445648 55.130977
11973 3 6.8669 46.579767 26.020117
11974 3 15.838695 62.149536 26.020117
11975 3 6.866825 36.331745 33.404715
11976 3 15.83862 51.901514 33.404715
11977 3 15.838551 41.652869 40.790085
11978 3 6.603647 57.222639 40.790085
11979 3 15.838476 31.404847 48.174683
11980 3 6.603572 46.974617 48.174683
11981 3 6.603866 36.725972 55.559282
11982 3 15.575662 52.295741 55.559282
11983 1 27.62758 34.950395 26.062562
11984 1 18.392675 50.520164 26.062562
11985 1 18.392601 40.272142 33.44716
11986 1 27.364396 55.841912 33.44716
11987 1 27.364691 45.593267 40.83253
11988 1 18.129787 61.163036 40.83253
11989 1 27.364616 35.345245 48.217128
11990 1 18.129712 50.915014 48.217128
11991 1 18.129642 40.666369 55.601726
11992 1 27.101438 56.236138 55.601726
11993 1 22.894241 32.661639 22.204728
11994 1 31.866037 48.231408 22.204728
11995 1 31.866326 37.983386 29.590098
11996 1 22.631422 53.553155 29.590098
11997 1 22.631352 43.304511 36.974697
11998 1 31.603148 58.87428 36.974697
11999 1 22.631278 33.056488 44.359295
12000 1 31.603073 48.626258 44.359295
12001 1 31.603004 38.377613 51.744665
12002 1 22.368099 53.947382 51.744665
12003 1 32.120577 32.15531 21.92768
12004 1 22.885673 47.725079 21.92768
12005 1 22.885603 37.476435 29.312279
12006 1 31.857399 53.046204 29.312279
12007 1 31.857688 42.798182 36.696877
12008 1 22.622784 58.367951 36.696877
12009 1 31.857619 32.549537 44.081475
12010 1 22.622714 48.119306 44.081475
12011 1 22.622639 37.871284 51.466845
12012 1 31.594435 53.441053 51.466845
12013 1 18.020318 35.030735 25.662038
12014 1 26.992113 50.600504 25.662038
12015 1 26.992044 40.35186 33.046637
12016 1 17.75714 55.921629 33.046637
12017 1 17.757065 45.673607 40.431235
12018 1 26.72886 61.243376 40.431235
12019 1 17.757359 35.424962 47.816605
12020 1 26.729155 50.994731 47.816605
12021 1 26.72908 40.746709 55.201203
12022 1 35.700876 56.316478 55.201203
12023 1 27.36108 40.116445 21.242392
12024 1 18.126176 55.686214 21.242392
12025 1 18.126101 45.438192 28.62699
12026 1 27.097897 61.007961 28.62699
12027 1 18.126395 35.189547 36.011589
12028 1 27.098191 50.759316 36.011589
12029 1 27.098116 40.511294 43.396959
12030 1 17.863212 56.081063 43.396959
12031 1 -0.343558 45.832418 50.781557
12032 1 26.834938 61.402188 50.781557
12033 1 31.792744 42.727184 25.533161
12034 1 22.55784 58.296953 25.533161
12035 1 31.792669 32.479161 32.917759
12036 1 22.557765 48.048931 32.917759
12037 1 22.557695 37.800286 40.303129
12038 1 31.529491 53.370055 40.303129
12039 1 31.529416 43.122033 47.687727
12040 1 22.294512 58.691802 47.687727
12041 1 31.529711 32.873388 55.072326
12042 1 22.294806 48.443157 55.072326
12043 1 22.428055 43.102104 25.856512
12044 1 31.399851 58.671873 25.856512
12045 1 22.427986 32.853459 33.24111
12046 1 31.399781 48.423228 33.24111
12047 1 31.400071 38.175206 40.625709
12048 1 22.165166 53.744975 40.625709
12049 1 22.165097 43.49633 48.011079
12050 1 31.136892 59.066099 48.011079
12051 1 22.165022 33.248308 55.395677
12052 1 31.136817 48.818077 55.395677
12053 1 17.905129 40.001228 22.064275
12054 1 26.876925 55.570998 22.064275
12055 1 26.87722 45.322353 29.449645
12056 1 17.642315 60.892122 29.449645
12057 1 26.877145 35.074331 36.834243
12058 1 17.642241 50.6441 36.834243
12059 1 35.848871 40.395455 44.218842
12060 1 26.613967 55.965224 44.218842
12061 1 26.613892 45.717202 51.60344
12062 1 35.585688 61.286971 51.60344
12063 4 27.682257 34.469601 24.824721
12064 4 18.447352 50.03937 24.824721
12065 4 18.447642 39.791348 32.209319
12066 4 27.419437 55.361117 32.209319
12067 4 27.419368 45.112472 39.593918
12068 4 18.184464 60.682241 39.593918
12069 4 27.419293 34.86445 46.979288
12070 4 18.184389 50.434219 46.979288
12071 4 18.184319 40.185574 54.363886
12072 4 27.156115 55.755344 54.363886
12073 4 26.840551 35.914475 26.445335
12074 4 17.605647 51.484245 26.445335
12075 4 17.605577 41.2356 33.829933
12076 4 26.577373 56.805369 33.829933
12077 4 26.577662 46.557347 41.214532
12078 4 17.342758 62.127116 41.214532
12079 4 26.577593 36.308702 48.599902
12080 4 17.342689 51.878471 48.599902
12081 4 17.342614 41.630449 55.9845
12082 4 26.314409 57.200218 55.9845
12083 4 22.044182 31.949166 21.511723
12084 4 31.015978 47.518936 21.511723
12085 4 31.015908 37.270291 28.896321
12086 4 21.781004 52.84006 28.896321
12087 4 21.780929 42.592038 36.280919
12088 4 30.752725 58.161807 36.280919
12089 4 21.78086 32.343393 43.666289
12090 4 30.752655 47.913162 43.666289
12091 4 30.752945 37.66514 51.050888
12092 4 21.51804 53.234909 51.050888
12093 4 24.119182 32.188318 22.529623
12094 4 33.090978 47.758087 22.529623
12095 4 33.090908 37.509442 29.914221
12096 4 23.856004 53.079212 29.914221
12097 4 23.856293 42.83119 37.298819
12098 4 32.828089 58.400959 37.298819
12099 4 23.856223 32.582545 44.684189
12100 4 32.828019 48.152314 44.684189
12101 4 32.827944 37.904292 52.068788
12102 4 23.59304 53.474061 52.068788
12103 4 32.021287 32.270527 23.225715
12104 4 22.786383 47.840296 23.225715
12105 4 22.786678 37.591651 30.611085
12106 4 31.758473 53.16142 30.611085
12107 4 31.758399 42.913398 37.995683
12108 4 22.523494 58.483167 37.995683
12109 4 31.758329 32.664753 45.380282
12110 4 22.523425 48.234522 45.380282
12111 4 22.52335 37.9865 52.765652
12112 4 31.495145 53.556269 52.765652
12113 4 31.113322 32.291701 21.088048
12114 4 21.878418 47.861471 21.088048
12115 4 21.878349 37.612826 28.472646
12116 4 30.850144 53.182595 28.472646
12117 4 30.850069 42.934573 35.857245
12118 4 21.615165 58.504342 35.857245
12119 4 30.85 32.685928 43.242615
12120 4 21.615096 48.255697 43.242615
12121 4 21.615021 38.007675 50.627213
12122 4 30.586816 53.577444 50.627213
12123 4 17.619057 34.123952 26.541029
12124 4 26.590853 49.693721 26.541029
12125 4 26.590783 39.445076 33.926399
12126 4 17.355879 55.014845 33.926399
12127 4 17.356168 44.766823 41.310997
12128 4 26.327964 60.336593 41.310997
12129 4 17.356098 34.518178 48.695595
12130 4 26.327894 50.087948 48.695595
12131 4 26.327819 39.839926 56.080965
12132 4 35.299615 55.409695 56.080965
12133 4 18.697124 34.700033 24.607096
12134 4 27.66892 50.269803 24.607096
12135 4 27.669214 40.021158 31.991694
12136 4 18.43431 55.590927 31.991694
12137 4 18.434235 45.342905 39.376292
12138 4 27.406031 60.912674 39.376292
12139 4 18.434165 35.09426 46.761662
12140 4 27.405961 50.664029 46.761662
12141 4 27.405886 40.416007 54.146261
12142 4 -0.035718 55.985776 54.146261
12143 4 27.483225 41.045648 22.120611
12144 4 18.24832 56.615418 22.120611
12145 4 18.248251 46.366773 29.505209
12146 4 27.220047 61.936542 29.505209
12147 4 18.248176 36.118751 36.889807
12148 4 27.219972 51.68852 36.889807
12149 4 27.220266 41.439875 44.275177
12150 4 17.985362 57.009644 44.275177
12151 4 -0.221413 46.761622 51.659775
12152 4 27.4833 0.052314 51.659775
12153 4 26.831384 38.938747 21.4523
12154 4 17.59648 54.508517 21.4523
12155 4 17.596405 44.260494 28.836899
12156 4 26.568201 59.830264 28.836899
12157 4 17.596335 34.01185 36.221497
12158 4 26.568131 49.581619 36.221497
12159 4 26.56842 39.333597 43.606867
12160 4 17.333516 54.903366 43.606867
12161 4 35.540141 44.655344 50.991465
12162 4 26.305237 60.225113 50.991465
12163 4 32.914608 42.903433 26.181407
12164 4 23.679704 58.473203 26.181407
12165 4 32.914539 32.654788 33.566005
12166 4 23.679634 48.224558 33.566005
12167 4 23.679924 37.976536 40.951375
12168 4 32.651719 53.546305 40.951375
12169 4 32.65165 43.29766 48.335973
12170 4 23.416745 58.867429 48.335973
12171 4 32.651575 33.049638 55.720571
12172 4 23.416671 48.619407 55.720571
12173 4 30.873342 41.817909 25.84648
12174 4 21.638437 57.387678 25.84648
12175 4 30.873267 31.569887 33.231078
12176 4 21.638362 47.139656 33.231078
12177 4 21.638293 36.891011 40.615676
12178 4 30.610089 52.46078 40.615676
12179 4 30.610014 42.212758 48.001046
12180 4 21.375109 57.782528 48.001046
12181 4 30.609944 31.964113 55.385644
12182 4 21.37504 47.533883 55.385644
12183 4 23.462731 43.211092 25.121834
12184 4 32.434527 58.780861 25.121834
12185 4 23.462656 32.96307 32.506432
12186 4 32.434452 48.532839 32.506432
12187 4 32.434383 38.284194 39.89103
12188 4 23.199478 53.853963 39.89103
12189 4 23.199768 43.605941 47.2764
12190 4 32.171563 59.175711 47.2764
12191 4 23.199698 33.357296 54.660998
12192 4 32.171494 48.927066 54.660998
12193 4 22.231573 43.644554 27.051136
12194 4 31.203369 59.214324 27.051136
12195 4 22.231504 33.395909 34.435734
12196 4 31.203299 48.965679 34.435734
12197 4 31.203224 38.717657 41.821104
12198 4 21.96832 54.287426 41.821104
12199 4 21.968245 44.039404 49.205703
12200 4 30.940041 59.609173 49.205703
12201 4 21.968176 33.790759 56.590301
12202 4 30.939971 49.360528 56.590301
12203 4 16.989685 40.605958 22.759596
12204 4 25.961481 56.175727 22.759596
12205 4 25.961406 45.927705 30.144966
12206 4 16.726501 61.497475 30.144966
12207 4 25.961336 35.67906 37.529564
12208 4 16.726432 51.24883 37.529564
12209 4 34.933057 41.000808 44.914162
12210 4 25.698153 56.570577 44.914162
12211 4 25.698447 46.321932 52.299532
12212 4 34.670243 61.891701 52.299532
12213 4 19.17224 40.354973 21.928452
12214 4 28.144036 55.924743 21.928452
12215 4 28.14433 45.676098 29.31305
12216 4 18.909426 61.245867 29.31305
12217 4 28.144255 35.428076 36.69842
12218 4 18.909351 50.997845 36.69842
12219 4 0.702581 40.7492 44.083019
12220 4 27.881077 56.318969 44.083019
12221 4 27.881002 46.070947 51.467617
12222 4 0.439398 61.640716 51.467617
12223 2 27.066674 34.880643 24.111651
12224 2 17.83177 50.450412 24.111651
12225 2 17.831695 40.20239 31.496249
12226 2 26.803491 55.772159 31.496249
12227 2 26.803421 45.523514 38.881619
12228 2 17.568517 61.093283 38.881619
12229 2 26.803711 35.275492 46.266217
12230 2 17.568806 50.845261 46.266217
12231 2 17.568737 40.596616 53.650816
12232 2 26.540533 56.166386 53.650816
12233 2 26.428409 36.554081 25.741526
12234 2 17.193505 52.123851 25.741526
12235 2 17.193435 41.875206 33.126896
12236 2 26.165231 57.444975 33.126896
12237 2 26.165156 47.196953 40.511494
12238 2 17.456469 0.487645 40.511494
12239 2 26.165087 36.948308 47.896092
12240 2 16.930182 52.518077 47.896092
12241 2 16.930472 42.270055 55.281462
12242 2 25.902267 57.839824 55.281462
12243 2 28.161197 34.414172 26.81962
12244 2 18.926293 49.983942 26.81962
12245 2 18.926223 39.735297 34.204218
12246 2 27.898019 55.305066 34.204218
12247 2 27.897944 45.057044 41.588816
12248 2 18.66304 60.626813 41.588816
12249 2 27.898239 34.808399 48.974186
12250 2 18.663334 50.378168 48.974186
12251 2 18.66326 40.130146 56.358785
12252 2 27.635055 55.699915 56.358785
12253 2 28.295884 33.729725 24.66266
12254 2 19.060979 49.299495 24.66266
12255 2 19.06091 39.05085 32.047258
12256 2 28.032706 54.620619 32.047258
12257 2 28.032995 44.372597 39.432628
12258 2 18.798091 59.942366 39.432628
12259 2 28.032925 34.123952 46.817226
12260 2 18.798021 49.693721 46.817226
12261 2 18.797946 39.445699 54.201824
12262 2 27.769742 55.015468 54.201824
12263 2 26.663571 36.088234 27.497963
12264 2 17.428666 51.658003 27.497963
12265 2 17.428597 41.409358 34.882561
12266 2 26.400392 56.979127 34.882561
12267 2 26.400318 46.731105 42.267159
12268 2 17.69163 0.021798 42.267159
12269 2 26.400248 36.48246 49.652529
12270 2 17.165344 52.05223 49.652529
12271 2 17.165633 41.804208 57.037127
12272 2 26.137429 57.373977 57.037127
12273 2 22.364245 31.045497 21.143612
12274 2 31.33604 46.615266 21.143612
12275 2 31.336335 36.366621 28.52821
12276 2 22.101431 51.936391 28.52821
12277 2 22.101356 41.688369 35.91358
12278 2 31.073151 57.258138 35.91358
12279 2 22.101286 31.439724 43.298178
12280 2 31.073082 47.009493 43.298178
12281 2 31.073007 36.761471 50.682777
12282 2 21.838103 52.33124 50.682777
12283 2 24.166516 31.197458 22.426984
12284 2 33.138312 46.767227 22.426984
12285 2 33.138601 36.519205 29.811582
12286 2 23.903697 52.088974 29.811582
12287 2 23.903627 41.840329 37.196952
12288 2 32.875423 57.410099 37.196952
12289 2 23.903553 31.592307 44.58155
12290 2 32.875348 47.162077 44.58155
12291 2 32.875279 36.913432 51.966149
12292 2 23.640374 52.483201 51.966149
12293 2 22.661952 33.606413 22.550459
12294 2 31.633748 49.176182 22.550459
12295 2 31.634042 38.927537 29.935058
12296 2 22.399138 54.497306 29.935058
12297 2 22.399063 44.249284 37.319656
12298 2 31.370859 59.819053 37.319656
12299 2 22.398994 34.000639 44.705026
12300 2 31.370789 49.570409 44.705026
12301 2 31.370714 39.322386 52.089624
12302 2 22.13581 54.892156 52.089624
12303 2 21.255541 32.371419 21.049462
12304 2 30.227337 47.941188 21.049462
12305 2 30.227268 37.692543 28.43406
12306 2 20.992363 53.262312 28.43406
12307 2 20.992288 43.01429 35.81943
12308 2 29.964084 58.584059 35.81943
12309 2 20.992219 32.765645 43.204028
12310 2 29.964015 48.335414 43.204028
12311 2 29.96394 38.087392 50.588627
12312 2 20.729035 53.657162 50.588627
12313 2 24.480242 32.509055 23.402439
12314 2 33.452037 48.078825 23.402439
12315 2 33.451968 37.83018 30.787809
12316 2 24.217064 53.399949 30.787809
12317 2 24.216989 43.151927 38.172408
12318 2 33.188784 58.721696 38.172408
12319 2 24.216919 32.903282 45.557006
12320 2 33.188715 48.473051 45.557006
12321 2 33.189004 38.225029 52.941604
12322 2 23.9541 53.794798 52.941604
12323 2 30.169227 32.451759 21.511723
12324 2 20.934323 48.021528 21.511723
12325 2 20.934253 37.772883 28.896321
12326 2 29.906049 53.342652 28.896321
12327 2 29.905974 43.09463 36.281691
12328 2 20.67107 58.664399 36.281691
12329 2 29.905904 32.845985 43.666289
12330 2 20.671 48.415754 43.666289
12331 2 20.670925 38.167732 51.050888
12332 2 29.642721 53.737502 51.050888
12333 2 31.2528 32.462346 20.111049
12334 2 22.017896 48.032115 20.111049
12335 2 22.017827 37.78347 27.495648
12336 2 30.989622 53.35324 27.495648
12337 2 30.989912 43.105218 34.880246
12338 2 21.755007 58.674987 34.880246
12339 2 30.989842 32.856573 42.265616
12340 2 21.754938 48.426342 42.265616
12341 2 21.754863 38.17832 49.650214
12342 2 30.726659 53.748089 49.650214
12343 2 33.130897 32.000858 21.536418
12344 2 23.895993 47.570627 21.536418
12345 2 23.895924 37.321982 28.921016
12346 2 32.867719 52.891752 28.921016
12347 2 32.867644 42.64373 36.305614
12348 2 23.63274 58.213499 36.305614
12349 2 32.867575 32.395085 43.690984
12350 2 23.632671 47.964854 43.690984
12351 2 23.63296 37.716832 51.075583
12352 2 32.604756 53.286601 51.075583
12353 2 31.173341 32.51466 23.694922
12354 2 21.938437 48.08443 23.694922
12355 2 21.938367 37.835785 31.080292
12356 2 30.910163 53.405554 31.080292
12357 2 30.910088 43.157532 38.46489
12358 2 21.675184 58.727301 38.46489
12359 2 30.910019 32.908887 45.849488
12360 2 21.675114 48.478656 45.849488
12361 2 21.675404 38.230634 53.234086
12362 2 30.647199 53.800403 53.234086
12363 2 32.888267 32.187073 23.774409
12364 2 23.653363 47.756842 23.774409
12365 2 23.653658 37.508197 31.159007
12366 2 32.625453 53.077966 31.159007
12367 2 32.625378 42.829944 38.544377
12368 2 23.390474 58.399713 38.544377
12369 2 32.625309 32.581299 45.928975
12370 2 23.390405 48.151068 45.928975
12371 2 23.39033 37.903046 53.313574
12372 2 32.362125 53.472815 53.313574
12373 2 17.945911 33.192257 26.635179
12374 2 26.917706 48.762026 26.635179
12375 2 26.917631 38.514004 34.020549
12376 2 17.682727 54.083773 34.020549
12377 2 17.683022 43.835128 41.405147
12378 2 26.654817 59.404898 41.405147
12379 2 17.682947 33.587106 48.789745
12380 2 26.654743 49.156875 48.789745
12381 2 26.654673 38.908231 56.175115
12382 2 35.626469 54.478 56.175115
12383 2 19.234408 35.410638 24.136346
12384 2 28.206204 50.980407 24.136346
12385 2 28.206493 40.732385 31.520944
12386 2 18.971588 56.302154 31.520944
12387 2 18.971519 46.053509 38.905542
12388 2 27.943315 61.623278 38.905542
12389 2 18.971444 35.805487 46.290912
12390 2 27.94324 51.375256 46.290912
12391 2 27.94317 41.126611 53.675511
12392 2 0.501566 56.69638 53.675511
12393 2 17.691467 36.06955 25.765449
12394 2 26.663262 51.639319 25.765449
12395 2 26.663552 41.391297 33.150819
12396 2 17.428647 56.961067 33.150819
12397 2 17.428578 46.712422 40.535417
12398 2 26.926591 0.003114 40.535417
12399 2 17.428503 36.4644 47.920015
12400 2 26.400299 52.034169 47.920015
12401 2 26.400229 41.785524 55.305385
12402 2 35.372025 57.355293 55.305385
12403 2 19.092277 33.787022 24.412622
12404 2 28.064073 49.356791 24.412622
12405 2 28.063998 39.108769 31.797992
12406 2 18.829093 54.678538 31.797992
12407 2 18.829024 44.429893 39.18259
12408 2 27.80082 59.999663 39.18259
12409 2 18.828949 34.181871 46.567189
12410 2 27.800745 49.751641 46.567189
12411 2 27.801039 39.502996 53.952559
12412 2 0.359435 55.072765 53.952559
12413 2 17.224713 34.46711 27.386063
12414 2 26.196509 50.036879 27.386063
12415 2 26.19644 39.788234 34.770661
12416 2 16.961535 55.358003 34.770661
12417 2 16.961825 45.109981 42.156031
12418 2 25.93362 60.67975 42.156031
12419 2 16.961755 34.861336 49.54063
12420 2 25.933551 50.431105 49.54063
12421 2 25.933476 40.183083 56.925228
12422 2 34.905272 55.752852 56.925228
12423 2 27.812818 41.901363 21.74787
12424 2 18.577914 57.471132 21.74787
12425 2 18.577839 47.22311 29.133239
12426 2 28.075852 0.513802 29.133239
12427 2 18.57777 36.974465 36.517838
12428 2 27.549565 52.544234 36.517838
12429 2 27.549491 42.296212 43.902436
12430 2 18.314586 57.865982 43.902436
12431 2 0.108181 47.617337 51.287806
12432 2 27.812894 0.908029 51.287806
12433 2 27.078985 41.137821 22.991884
12434 2 17.844081 56.707591 22.991884
12435 2 17.844006 46.459569 30.377254
12436 2 26.815802 62.029338 30.377254
12437 2 17.843937 36.210924 37.761852
12438 2 26.815732 51.780693 37.761852
12439 2 26.815658 41.532671 45.14645
12440 2 17.580753 57.10244 45.14645
12441 2 35.787748 46.853795 52.53182
12442 2 27.079061 0.144487 52.53182
12443 2 26.380035 38.616142 22.293476
12444 2 17.145131 54.185911 22.293476
12445 2 17.145056 43.937889 29.678846
12446 2 26.116852 59.507658 29.678846
12447 2 17.144986 33.689244 37.063444
12448 2 26.116782 49.259013 37.063444
12449 2 26.116707 39.010991 44.448043
12450 2 16.881803 54.58076 44.448043
12451 2 35.088433 44.332115 51.833413
12452 2 25.853529 59.901885 51.833413
12453 2 27.87605 40.321966 20.350283
12454 2 18.641145 55.891735 20.350283
12455 2 18.641071 45.643713 27.734881
12456 2 27.612866 61.213482 27.734881
12457 2 18.641001 35.395068 35.120251
12458 2 27.612797 50.964837 35.120251
12459 2 27.612722 40.716815 42.504849
12460 2 18.377817 56.286584 42.504849
12461 2 0.171048 46.037939 49.889447
12462 2 27.349544 61.607708 49.889447
12463 2 26.915929 38.370762 20.570223
12464 2 17.681024 53.940531 20.570223
12465 2 17.680955 43.691886 27.955593
12466 2 26.652751 59.261656 27.955593
12467 2 17.68088 33.443864 35.340191
12468 2 26.652676 49.013634 35.340191
12469 2 26.65297 38.764989 42.72479
12470 2 17.418066 54.334758 42.72479
12471 2 35.624691 44.086736 50.11016
12472 2 26.389787 59.656505 50.11016
12473 2 33.520801 43.517505 25.726863
12474 2 24.285896 59.087274 25.726863
12475 2 33.520726 33.269483 33.112233
12476 2 24.285822 48.839252 33.112233
12477 2 24.285752 38.590607 40.496831
12478 2 33.257548 54.160376 40.496831
12479 2 33.257837 43.912354 47.881429
12480 2 24.022933 59.482124 47.881429
12481 2 33.257767 33.663709 55.266799
12482 2 24.022863 49.233479 55.266799
12483 2 33.221347 42.283757 26.968562
12484 2 23.986443 57.853526 26.968562
12485 2 33.221272 32.035734 34.35316
12486 2 23.986368 47.605504 34.35316
12487 2 23.986662 37.356859 41.737759
12488 2 32.958458 52.926628 41.737759
12489 2 32.958383 42.678606 49.123129
12490 2 23.723479 58.248375 49.123129
12491 2 32.958314 32.429961 56.507727
12492 2 23.723409 47.99973 56.507727
12493 2 31.058303 41.259888 26.697688
12494 2 21.823399 56.829658 26.697688
12495 2 31.058228 31.011866 34.083058
12496 2 21.823324 46.581636 34.083058
12497 2 21.823254 36.332991 41.467656
12498 2 30.79505 51.90276 41.467656
12499 2 30.795339 41.654738 48.852254
12500 2 21.560435 57.224507 48.852254
12501 2 30.795269 31.406093 56.236853
12502 2 21.560365 46.975862 56.236853
12503 2 31.567595 43.257801 24.606324
12504 2 22.332691 58.827571 24.606324
12505 2 31.567526 33.009156 31.991694
12506 2 22.332622 48.578926 31.991694
12507 2 22.332547 38.330903 39.376292
12508 2 31.304342 53.900673 39.376292
12509 2 31.304273 43.652028 46.760891
12510 2 22.069368 59.221797 46.760891
12511 2 31.304562 33.404006 54.146261
12512 2 22.069658 48.973775 54.146261
12513 2 30.020032 41.791752 25.324025
12514 2 20.785128 57.361521 25.324025
12515 2 30.019958 31.54373 32.708623
12516 2 20.785053 47.113499 32.708623
12517 2 20.784984 36.864854 40.093993
12518 2 29.756779 52.434623 40.093993
12519 2 29.757069 42.186601 47.478591
12520 2 20.522164 57.75637 47.478591
12521 2 29.756999 31.937956 54.863189
12522 2 20.522095 47.507725 54.863189
12523 2 21.515727 43.165628 27.632242
12524 2 30.487523 58.735397 27.632242
12525 2 21.515652 32.917606 35.017612
12526 2 30.487448 48.487375 35.017612
12527 2 30.487378 38.23873 42.40221
12528 2 21.252474 53.8085 42.40221
12529 2 21.252763 43.560478 49.786809
12530 2 30.224559 59.130247 49.786809
12531 2 21.252693 33.311833 57.172179
12532 2 30.224489 48.881602 57.172179
12533 2 22.861832 44.340834 27.508767
12534 2 31.833628 59.910604 27.508767
12535 2 22.861763 34.09219 34.893365
12536 2 31.833558 49.661959 34.893365
12537 2 31.833848 39.413937 42.278735
12538 2 22.598943 54.983706 42.278735
12539 2 22.598874 44.735061 49.663333
12540 2 31.570669 60.30483 49.663333
12541 2 22.598799 34.487039 57.047931
12542 2 31.570595 50.056808 57.047931
12543 2 23.485059 42.766419 24.202714
12544 2 32.456855 58.336189 24.202714
12545 2 23.48499 32.517774 31.587312
12546 2 32.456785 48.087544 31.587312
12547 2 32.456711 37.839522 38.972682
12548 2 23.221806 53.409291 38.972682
12549 2 23.222101 43.160646 46.35728
12550 2 32.193897 58.730415 46.35728
12551 2 23.222026 32.912624 53.741879
12552 2 32.193822 48.482393 53.741879
12553 2 24.326281 43.792156 25.4475
12554 2 33.298077 59.361925 25.4475
12555 2 24.326206 33.544134 32.83287
12556 2 33.298002 49.113903 32.83287
12557 2 33.297933 38.865258 40.217468
12558 2 24.063028 54.435027 40.217468
12559 2 24.062953 44.187005 47.602066
12560 2 33.034749 59.756774 47.602066
12561 2 24.063248 33.93836 54.987436
12562 2 33.035044 49.508129 54.987436
12563 2 21.598285 42.531004 25.486858
12564 2 30.570081 58.100774 25.486858
12565 2 21.598575 32.282982 32.871456
12566 2 30.57037 47.852752 32.871456
12567 2 30.570301 37.604107 40.256054
12568 2 21.335397 53.173876 40.256054
12569 2 21.335322 42.925854 47.641424
12570 2 30.307117 58.495623 47.641424
12571 2 21.335252 32.677209 55.026022
12572 2 30.307048 48.246978 55.026022
12573 2 16.052649 40.059771 22.883071
12574 2 25.024445 55.62954 22.883071
12575 2 25.024375 45.380895 30.267669
12576 2 15.789471 60.950664 30.267669
12577 2 25.024665 35.132873 37.653039
12578 2 15.78976 50.702642 37.653039
12579 2 33.996391 40.453997 45.037638
12580 2 24.761486 56.023766 45.037638
12581 2 24.761412 45.775744 52.422236
12582 2 33.733207 61.345514 52.422236
12583 2 19.853909 39.707271 21.679186
12584 2 28.825705 55.27704 21.679186
12585 2 28.825636 45.028395 29.063785
12586 2 19.590731 60.598165 29.063785
12587 2 28.825561 34.780373 36.448383
12588 2 19.590656 50.350143 36.448383
12589 2 1.384251 40.101498 43.832981
12590 2 28.562747 55.671267 43.832981
12591 2 28.562672 45.423245 51.218351
12592 2 1.121067 60.993014 51.218351
12593 2 17.04279 41.474751 23.305974
12594 2 26.014586 57.044521 23.305974
12595 2 26.014511 46.796498 30.690572
12596 2 17.305824 0.087191 30.690572
12597 2 26.014442 36.547854 38.075942
12598 2 16.779537 52.117623 38.075942
12599 2 34.986162 41.869601 45.460541
12600 2 25.751258 57.43937 45.460541
12601 2 25.751553 47.190725 52.845139
12602 2 35.249566 0.481417 52.845139
12603 2 19.416386 41.325282 22.122154
12604 2 28.388182 56.895051 22.122154
12605 2 28.388107 46.647029 29.506752
12606 2 19.153203 62.216798 29.506752
12607 2 28.388032 36.399007 36.892122
12608 2 19.153128 51.968776 36.892122
12609 2 0.946358 41.720131 44.276721
12610 2 28.124854 57.2899 44.276721
12611 2 28.125143 47.041878 51.661319
12612 2 1.209756 0.33257 51.661319
12613 2 17.605145 39.08884 21.49706
12614 2 26.576941 54.658609 21.49706
12615 2 26.576866 44.410587 28.88243
12616 2 17.341962 59.980356 28.88243
12617 2 26.576797 34.161942 36.267028
12618 2 17.341892 49.731711 36.267028
12619 2 35.548882 39.483689 43.651627
12620 2 26.313977 55.053458 43.651627
12621 2 26.313908 44.804814 51.036997
12622 2 35.285703 60.374583 51.036997
12623 6 18.276688 34.769786 19.999921
12624 6 27.248484 50.339555 19.999921
12625 6 27.248778 40.09091 27.38452
12626 6 18.013874 55.660679 27.38452
12627 6 18.013799 45.412657 34.769118
12628 6 26.985595 60.982427 34.769118
12629 6 18.01373 35.164012 42.154488
12630 6 26.985525 50.733782 42.154488
12631 6 26.98545 40.48576 49.539086
12632 6 17.750546 56.055529 49.539086
12633 6 22.620662 37.717455 23.819169
12634 6 31.592458 53.287224 23.819169
12635 6 31.592383 43.039202 31.203767
12636 6 22.357479 58.608971 31.203767
12637 6 31.592677 32.790557 38.589137
12638 6 22.357773 48.360326 38.589137
12639 6 22.357698 38.112304 45.973735
12640 6 31.329494 53.682073 45.973735
12641 6 31.329424 43.433428 53.358333
12642 6 22.09452 59.003197 53.358333
12643 6 31.961884 37.404814 24.067663
12644 6 22.72698 52.974583 24.067663
12645 6 22.72691 42.725938 31.452261
12646 6 31.698706 58.295707 31.452261
12647 6 22.726835 32.477916 38.837631
12648 6 31.698631 48.047685 38.837631
12649 6 31.698562 37.79904 46.222229
12650 6 22.463657 53.368809 46.222229
12651 6 22.463947 43.120787 53.606828
12652 6 31.435742 58.690557 53.606828
12653 6 27.353589 34.366217 20.168928
12654 6 18.118685 49.935987 20.168928
12655 6 18.118615 39.687342 27.553527
12656 6 27.090411 55.257111 27.553527
12657 6 27.0907 45.009089 34.938125
12658 6 17.855796 60.578858 34.938125
12659 6 27.090631 34.760444 42.322723
12660 6 17.855726 50.330213 42.322723
12661 6 17.855651 40.082191 49.708093
12662 6 26.827447 55.65196 49.708093
12663 6 17.993396 45.37093 24.293005
12664 6 26.965192 60.9407 24.293005
12665 6 17.993327 35.122285 31.677604
12666 6 26.965122 50.692055 31.677604
12667 6 26.965047 40.444033 39.062202
12668 6 17.730143 56.013802 39.062202
12669 6 35.936774 45.765157 46.447572
12670 6 26.701869 61.334926 46.447572
12671 6 35.937063 35.517135 53.83217
12672 6 26.702159 51.086904 53.83217
12673 6 31.928871 42.691062 20.381923
12674 6 22.693967 58.260831 20.381923
12675 6 31.928802 32.442417 27.766522
12676 6 22.693897 48.012186 27.766522
12677 6 22.694187 37.764164 35.15112
12678 6 31.665982 53.333933 35.15112
12679 6 31.665913 43.085288 42.53649
12680 6 22.431008 58.655057 42.53649
12681 6 31.665838 32.837266 49.921088
12682 6 22.430934 48.407035 49.921088
12683 6 22.597905 43.082797 20.254589
12684 6 31.5697 58.652566 20.254589
12685 6 22.59783 32.834775 27.639188
12686 6 31.569626 48.404544 27.639188
12687 6 31.569556 38.155899 35.024558
12688 6 22.334652 53.725669 35.024558
12689 6 22.334577 43.477646 42.409156
12690 6 31.306373 59.047416 42.409156
12691 6 22.334871 33.229002 49.793754
12692 6 31.306667 48.798771 49.793754
12693 6 27.14778 45.450648 24.068435
12694 6 17.912875 61.020417 24.068435
12695 6 27.148069 35.202625 31.453033
12696 6 17.913165 50.772395 31.453033
12697 6 17.913095 40.52375 38.838403
12698 6 26.884891 56.093519 38.838403
12699 6 26.884816 45.845497 46.223001
12700 6 17.649912 61.415266 46.223001
12701 6 26.884746 35.596852 53.607599
12702 6 35.856542 51.166621 53.607599
12703 3 29.652175 38.396919 25.913619
12704 3 20.41727 53.966689 25.913619
12705 3 20.417201 43.718044 33.298218
12706 3 29.388997 59.287813 33.298218
12707 3 20.41749 33.470022 40.683588
12708 3 29.389286 49.039791 40.683588
12709 3 29.389216 38.791146 48.068186
12710 3 20.154312 54.360915 48.068186
12711 3 20.154237 44.112893 55.452784
12712 3 29.126033 59.682662 55.452784
12713 3 25.354529 38.887056 25.485314
12714 3 34.326325 54.456825 25.485314
12715 3 34.326255 44.20818 32.870684
12716 3 25.091351 59.777949 32.870684
12717 3 34.326545 33.960158 40.255283
12718 3 25.09164 49.529927 40.255283
12719 3 25.091571 39.281282 47.639881
12720 3 34.063367 54.851051 47.639881
12721 3 34.063292 44.603029 55.025251
12722 3 24.828387 60.172799 55.025251
12723 3 22.65304 35.178337 25.614963
12724 3 31.624836 50.748106 25.614963
12725 3 31.624761 40.500084 32.999562
12726 3 22.389856 56.069853 32.999562
12727 3 22.389782 45.821831 40.38416
12728 3 31.361577 61.3916 40.38416
12729 3 22.390076 35.573186 47.76953
12730 3 31.361872 51.142955 47.76953
12731 3 31.361797 40.894933 55.154128
12732 3 22.126893 56.464702 55.154128
12733 3 25.150061 35.892678 22.080481
12734 3 34.121857 51.462447 22.080481
12735 3 34.121782 41.214425 29.46508
12736 3 24.886878 56.784194 29.46508
12737 3 24.887167 46.536172 36.849678
12738 3 33.858963 62.105941 36.849678
12739 3 24.887098 36.287527 44.235048
12740 3 33.858893 51.857296 44.235048
12741 3 33.858818 41.609274 51.619646
12742 3 24.623914 57.179043 51.619646
12743 3 20.635678 36.004157 22.0172
12744 3 29.607474 51.573926 22.0172
12745 3 29.607769 41.325282 29.401798
12746 3 20.372864 56.895051 29.401798
12747 3 20.37279 46.647029 36.786397
12748 3 29.344585 62.216798 36.786397
12749 3 20.372715 36.399007 44.171767
12750 3 29.34451 51.968776 44.171767
12751 3 29.344441 41.720131 51.556365
12752 3 20.109537 57.2899 51.556365
12753 3 29.526633 35.801127 21.867486
12754 3 20.291729 51.370897 21.867486
12755 3 20.291659 41.122252 29.252085
12756 3 29.263455 56.692021 29.252085
12757 3 29.26338 46.443999 36.637454
12758 3 20.028476 62.013768 36.637454
12759 3 29.263675 36.195354 44.022053
12760 3 20.02877 51.765123 44.022053
12761 3 20.028695 41.517101 51.406651
12762 3 29.000491 57.08687 51.406651
12763 3 18.057779 32.536458 22.110578
12764 3 27.029574 48.106227 22.110578
12765 3 27.029505 37.857583 29.495177
12766 3 17.794601 53.427352 29.495177
12767 3 17.794526 43.17933 36.879775
12768 3 26.766321 58.749099 36.879775
12769 3 36.001156 32.930685 44.265145
12770 3 26.766252 48.500454 44.265145
12771 3 26.766541 38.252432 51.649743
12772 3 35.738337 53.822201 51.649743
12773 3 33.851185 36.306833 21.717001
12774 3 24.616281 51.876603 21.717001
12775 3 24.616206 41.628581 29.102371
12776 3 33.588002 57.19835 29.102371
12777 3 24.616136 31.379936 36.486969
12778 3 33.587932 46.949705 36.486969
12779 3 33.588221 36.701683 43.871567
12780 3 24.353317 52.271452 43.871567
12781 3 24.353248 42.022807 51.256937
12782 3 33.325043 57.592576 51.256937
12783 3 34.443861 38.6068 25.358752
12784 3 25.208957 54.176569 25.358752
12785 3 25.208882 43.928547 32.74335
12786 3 34.180678 59.498316 32.74335
12787 3 25.208813 33.679902 40.127949
12788 3 34.180608 49.249671 40.127949
12789 3 34.180533 39.001649 47.513319
12790 3 24.945629 54.571418 47.513319
12791 3 24.945924 44.322773 54.897917
12792 3 33.917719 59.892543 54.897917
12793 3 27.637832 32.056286 21.997907
12794 3 18.402928 47.626056 21.997907
12795 3 18.402858 37.377411 29.383277
12796 3 27.374654 52.94718 29.383277
12797 3 27.374579 42.699158 36.767875
12798 3 18.139675 58.268927 36.767875
12799 3 27.374873 32.450513 44.152474
12800 3 18.139969 48.020282 44.152474
12801 3 18.139894 37.77226 51.537072
12802 3 27.11169 53.342029 51.537072
12803 3 32.301239 35.122908 26.076453
12804 3 23.066334 50.692677 26.076453
12805 3 23.066629 40.444033 33.461051
12806 3 32.038425 56.013802 33.461051
12807 3 32.03835 45.76578 40.846421
12808 3 22.803445 61.335549 40.846421
12809 3 32.03828 35.517135 48.231019
12810 3 22.803376 51.086904 48.231019
12811 3 22.803301 40.838882 55.615617
12812 3 31.775097 56.408651 55.615617
12813 3 20.371243 38.814189 25.588725
12814 3 29.343039 54.383958 25.588725
12815 3 29.342964 44.135936 32.974095
12816 3 20.10806 59.705705 32.974095
12817 3 29.342894 33.887291 40.358693
12818 3 20.10799 49.457061 40.358693
12819 3 20.107915 39.209038 47.743291
12820 3 29.079711 54.778808 47.743291
12821 3 29.079641 44.530163 55.128661
12822 3 19.844737 60.099932 55.128661
12823 3 25.579584 32.118566 25.870403
12824 3 34.55138 47.688335 25.870403
12825 3 34.551305 37.440313 33.255773
12826 3 25.316401 53.010082 33.255773
12827 3 25.316326 42.76206 40.640371
12828 3 34.288122 58.331829 40.640371
12829 3 25.316256 32.513415 48.02497
12830 3 34.288052 48.083184 48.02497
12831 3 34.288341 37.835162 55.41034
12832 3 25.053437 53.404931 55.41034
12833 3 29.645725 31.402979 25.836447
12834 3 20.41082 46.972748 25.836447
12835 3 20.410746 36.724726 33.221046
12836 3 29.382541 52.294495 33.221046
12837 3 29.382472 42.04585 40.605644
12838 3 20.147567 57.61562 40.605644
12839 3 29.382397 31.797828 47.991014
12840 3 20.147493 47.367598 47.991014
12841 3 20.147787 37.118953 55.375612
12842 3 29.119583 52.688722 55.375612
12843 3 25.23088 44.428025 21.91379
12844 3 34.202675 59.997794 21.91379
12845 3 25.23081 34.17938 29.298388
12846 3 34.202606 49.749149 29.298388
12847 3 34.202531 39.501127 36.682986
12848 3 24.967627 55.070897 36.682986
12849 3 24.967557 44.822252 44.068356
12850 3 33.939353 60.392021 44.068356
12851 3 24.967482 34.57423 51.452954
12852 3 33.939278 50.143999 51.452954
12853 3 31.821048 40.411647 22.570524
12854 3 22.586144 55.981417 22.570524
12855 3 22.586069 45.733395 29.955122
12856 3 31.557865 61.303164 29.955122
12857 3 22.585999 35.48475 37.339721
12858 3 31.557795 51.054519 37.339721
12859 3 31.558084 40.806497 44.725091
12860 3 22.32318 56.376266 44.725091
12861 3 22.32311 46.127621 52.109689
12862 3 31.294906 61.69739 52.109689
12863 3 29.656743 44.40685 21.977071
12864 3 20.421839 59.976619 21.977071
12865 3 29.656673 34.158205 29.361669
12866 3 20.421769 49.727975 29.361669
12867 3 20.421694 39.479952 36.747039
12868 3 29.39349 55.049722 36.747039
12869 3 29.39342 44.801077 44.131637
12870 3 20.158516 60.370846 44.131637
12871 3 29.39371 34.553055 51.516235
12872 3 20.158805 50.122824 51.516235
12873 3 20.688767 31.186248 25.80635
12874 3 29.660563 46.756017 25.80635
12875 3 29.660852 36.507995 33.19172
12876 3 20.425948 52.077764 33.19172
12877 3 20.425878 41.829119 40.576318
12878 3 29.397674 57.398888 40.576318
12879 3 20.425803 31.581097 47.960917
12880 3 29.397599 47.150866 47.960917
12881 3 29.39753 36.902221 55.346287
12882 3 20.162625 52.471991 55.346287
12883 3 33.869119 44.182646 22.521906
12884 3 24.634215 59.752415 22.521906
12885 3 33.869044 33.934623 29.906504
12886 3 24.63414 49.504393 29.906504
12887 3 24.63407 39.255748 37.291874
12888 3 33.605866 54.825517 37.291874
12889 3 33.606155 44.577495 44.676472
12890 3 24.371251 60.147264 44.676472
12891 3 33.606086 34.32885 52.06107
12892 3 24.371181 49.898619 52.06107
12893 3 22.877044 40.558003 22.085112
12894 3 31.84884 56.127773 22.085112
12895 3 31.849135 45.879128 29.470482
12896 3 22.61423 61.448897 29.470482
12897 3 31.84906 35.631106 36.85508
12898 3 22.614156 51.200875 36.85508
12899 3 22.614086 40.95223 44.239678
12900 3 31.585882 56.521999 44.239678
12901 3 31.585807 46.273977 51.625048
12902 3 22.350903 61.843746 51.625048
12903 3 26.778643 42.85361 25.441326
12904 3 35.750439 58.423379 25.441326
12905 3 26.778568 32.605588 32.825924
12906 3 35.750364 48.175357 32.825924
12907 3 35.750658 37.926712 40.210523
12908 3 26.515754 53.496482 40.210523
12909 3 26.515679 43.248459 47.595893
12910 3 35.487475 58.818229 47.595893
12911 3 26.51561 32.999815 54.980491
12912 3 35.487405 48.569584 54.980491
12913 3 19.871954 43.906749 22.058101
12914 3 28.84375 59.476518 22.058101
12915 3 19.871885 33.658104 29.4427
12916 3 28.84368 49.227874 29.4427
12917 3 28.843606 38.979851 36.82807
12918 3 19.608701 54.549621 36.82807
12919 3 19.608996 44.300976 44.212668
12920 3 28.580792 59.870745 44.212668
12921 3 19.608921 34.052954 51.597266
12922 3 28.580717 49.622723 51.597266
12923 3 18.306292 42.729675 25.591812
12924 3 27.278088 58.299444 25.591812
12925 3 18.306222 32.48103 32.97641
12926 3 27.278018 48.050799 32.97641
12927 3 27.277943 37.802777 40.361008
12928 3 18.043039 53.372546 40.361008
12929 3 18.042969 43.123901 47.746378
12930 3 27.014765 58.69367 47.746378
12931 3 18.043259 32.875879 55.130977
12932 3 27.015054 48.445648 55.130977
12933 3 25.0736 46.579767 26.020117
12934 3 34.045395 62.149536 26.020117
12935 3 25.073525 36.331745 33.404715
12936 3 34.04532 51.901514 33.404715
12937 3 34.045251 41.652869 40.790085
12938 3 24.810347 57.222639 40.790085
12939 3 34.045176 31.404847 48.174683
12940 3 24.810272 46.974617 48.174683
12941 3 24.810566 36.725972 55.559282
12942 3 33.782362 52.295741 55.559282
