# LAMMPS data file written by OVITO Basic 3.10.6

12252 atoms
6 atom types

0.0 37.8956 xlo xhi
0.0 57.8237 ylo yhi
0.0 75.0425 zlo zhi

Atom Type Labels

1 C
2 H
3 I
4 N
5 O
6 Pb

Masses

1 12.0107  # C
2 1.00794  # H
3 126.90447  # I
4 14.0067  # N
5 15.9994  # O
6 207.2  # Pb

Atoms  # atomic

1 2 15.964699 24.111983 9.983511
2 2 15.127224 25.41528 10.443891
3 5 15.423232 24.865084 9.64753
4 2 15.771995 56.551883 2.628382
5 2 16.272168 56.386545 1.100512
6 5 16.155922 55.909474 1.985621
7 2 11.965969 10.422314 3.26148
8 2 10.626694 9.854954 2.556964
9 5 11.106681 9.971932 3.440399
10 2 7.050009 40.070119 9.844739
11 2 6.439093 39.258101 8.588036
12 5 6.991676 40.061361 8.85998
13 2 32.471089 5.729287 6.947689
14 2 33.244701 6.776541 5.990256
15 5 32.335157 6.475194 6.316518
16 2 12.265911 31.261194 14.275652
17 2 11.832714 31.805127 15.734546
18 5 11.496317 31.572323 14.808713
19 2 22.634156 52.817446 15.984514
20 2 22.214419 51.60163 16.963037
21 5 22.481475 51.843353 16.01711
22 2 3.325286 16.159966 11.163089
23 2 2.398366 16.861272 10.040198
24 5 2.898364 17.011756 10.907311
25 2 28.485408 9.969074 7.209779
26 2 27.368962 11.107534 6.94643
27 5 27.514116 10.123075 7.131627
28 2 10.369051 46.934828 2.111354
29 2 11.112263 46.021027 1.004783
30 5 10.249544 46.157028 1.516395
31 2 36.887942 37.647509 7.975142
32 2 36.899592 38.886048 6.936979
33 5 36.359285 38.100098 7.275917
34 2 7.605809 11.136795 5.59671
35 2 7.39101 9.587468 6.003332
36 5 6.92959 10.421543 5.662835
37 2 13.190186 12.7136 15.021581
38 2 13.766957 13.939809 14.140876
39 5 13.713703 12.931697 14.214366
40 2 29.376407 1.026432 1.899466
41 2 29.934133 1.082196 3.415292
42 5 29.910017 1.56834 2.527819
43 2 36.895522 48.789092 11.33843
44 2 36.283641 47.54274 10.511325
45 5 36.654255 48.481352 10.432716
46 2 20.496785 49.551578 2.414336
47 2 20.305895 47.969979 2.142308
48 5 20.77211 48.655824 2.722641
49 2 7.122406 18.973884 14.601071
50 2 6.903673 19.384078 13.053237
51 5 6.989067 18.606305 13.695347
52 2 33.318524 50.921511 9.530507
53 2 34.629359 49.976769 9.497797
54 5 33.918497 50.379232 10.095481
55 2 18.98332 12.504257 4.299639
56 2 18.375539 13.753512 5.125388
57 5 19.179168 13.146849 5.0221
58 2 17.023406 35.018214 7.467444
59 2 15.781373 34.521695 8.374482
60 5 16.776069 34.423656 8.21481
61 2 26.593063 21.853033 9.909886
62 2 25.299633 22.725484 9.488268
63 5 26.298776 22.757233 9.647116
64 2 28.514843 52.960912 10.117849
65 2 29.291427 52.174757 8.938538
66 5 29.212598 53.057668 9.427191
67 2 13.538474 51.007448 9.136892
68 2 13.101357 51.007035 10.692792
69 5 13.09045 50.471821 9.833749
70 2 27.746873 53.786826 12.677198
71 2 27.693903 53.277648 14.210112
72 5 28.216373 53.232155 13.344386
73 2 30.725381 34.449944 6.847487
74 2 29.190383 34.821731 7.1902
75 5 29.791213 34.165031 6.708251
76 2 27.416733 50.116268 16.974766
77 2 26.368492 49.978042 15.75248
78 5 26.455994 50.120756 16.750731
79 2 32.885725 17.71978 13.252811
80 2 31.605771 18.698615 13.377297
81 5 32.49796 18.563184 12.918838
82 2 30.345796 46.921264 17.26624
83 2 31.178433 48.306385 17.273395
84 5 31.254177 47.299158 17.338842
85 2 33.774919 40.814446 15.700694
86 2 35.209392 41.35236 15.186074
87 5 34.218157 41.325862 14.982902
88 2 12.82239 17.768942 13.826317
89 2 12.159256 16.913166 15.026232
90 5 11.982519 17.617642 14.321247
91 2 16.297793 1.035952 14.606932
92 2 15.698527 1.001632 13.1064
93 5 16.265521 1.532731 13.755228
94 2 9.426121 31.276152 12.123113
95 2 11.011317 31.335276 11.813993
96 5 10.195907 31.888287 12.045969
97 2 23.457839 47.143089 15.095311
98 2 24.706694 48.134408 15.359022
99 5 23.952623 47.623645 15.800638
100 2 32.321185 30.120215 9.128915
101 2 32.806835 30.886601 10.466335
102 5 32.147812 30.906928 9.69835
103 2 7.235585 9.72545 2.721592
104 2 8.17948 9.31636 3.968029
105 5 7.688567 10.081237 3.5225
106 2 23.877232 5.370343 0.999159
107 2 22.262901 5.355952 1.074149
108 5 23.097383 5.843524 1.374881
109 2 10.519661 11.747552 8.187842
110 2 10.627817 10.266379 8.825279
111 5 11.135716 11.121412 8.636904
112 2 9.25202 42.65023 5.719357
113 2 8.017004 42.14331 4.808499
114 5 8.989567 42.423467 4.795816
115 2 21.87047 2.175753 17.659006
116 2 20.610542 1.404912 17.00305
117 5 21.609114 1.36382 17.163337
118 2 17.903817 25.641458 13.194659
119 2 18.531222 26.451063 14.444779
120 5 18.750092 25.862416 13.650979
121 2 18.739382 40.84878 5.387407
122 2 18.134862 40.395296 6.815973
123 5 17.921146 40.528013 5.835545
124 2 4.09366 28.274238 6.710602
125 2 3.576776 27.651438 8.109475
126 5 4.342846 27.668274 7.448129
127 2 28.635962 36.509252 16.208745
128 2 29.010619 36.03297 17.706972
129 5 28.766297 36.829792 17.132594
130 2 33.425135 47.539405 13.132675
131 2 33.046698 46.433728 14.24899
132 5 33.207068 46.585912 13.261241
133 2 21.856597 14.206183 11.636645
134 2 20.311207 14.678861 11.652173
135 5 20.990889 14.099556 11.175764
136 2 19.821046 22.772353 4.492605
137 2 19.016861 23.572947 3.341851
138 5 19.888089 23.110016 3.568094
139 2 18.348368 46.324607 15.445915
140 2 17.411769 46.584923 14.154825
141 5 17.438425 46.193746 15.08799
142 2 27.71598 14.103004 14.047589
143 2 27.147759 12.972372 13.042257
144 5 26.988577 13.448705 13.921061
145 2 30.469718 13.798263 1.155188
146 2 29.977872 12.504967 1.990274
147 5 29.682967 13.382568 1.581159
148 2 21.506985 49.14939 15.867534
149 2 21.365276 49.325353 14.267268
150 5 21.837894 48.812982 15.001186
151 2 28.146453 54.818905 17.605588
152 2 27.422861 56.239363 17.339863
153 5 27.445217 55.425914 17.9418
154 2 21.836167 44.906299 8.228752
155 2 21.841011 45.696022 9.638791
156 5 22.323424 45.002616 9.081122
157 2 22.287007 18.270756 4.537127
158 2 22.688849 18.718551 3.037161
159 5 22.797512 18.937513 4.019391
160 2 20.074123 21.575076 15.72512
161 2 19.087805 21.966711 14.506229
162 5 19.792834 21.310451 14.81733
163 2 12.279241 29.773741 4.504174
164 2 11.789732 31.122396 5.248087
165 5 11.712214 30.574361 4.400634
166 2 16.909819 31.524524 16.94115
167 2 17.384264 31.227166 15.42511
168 5 17.116126 30.800913 16.303141
169 2 4.482531 18.63427 6.368799
170 2 3.531791 19.204158 5.192697
171 5 4.257476 18.533981 5.413538
172 2 7.613798 53.450459 14.551091
173 2 8.863912 53.048031 13.609199
174 5 8.252831 52.726485 14.349277
175 2 22.098253 54.800425 15.070545
176 2 23.093589 55.96658 15.581706
177 5 22.312175 55.377893 15.841259
178 2 13.660464 35.582018 12.183616
179 2 14.673704 34.652425 13.03279
180 5 13.711894 34.768765 12.739679
181 2 9.325612 26.35474 17.751961
182 2 9.798785 27.87776 18.013525
183 5 9.334585 27.07723 18.423645
184 2 29.670749 43.591111 9.726937
185 2 28.666411 42.347373 9.964249
186 5 28.786415 43.229052 9.481787
187 2 22.300527 44.525806 6.11216
188 2 23.223115 45.843836 5.958784
189 5 22.426662 45.346985 5.580196
190 2 23.868915 12.325083 8.857592
191 2 24.342041 10.789218 8.686819
192 5 23.63514 11.466921 8.430817
193 2 30.051138 2.536082 8.013377
194 2 28.7259 2.246959 8.89204
195 5 29.088406 2.330062 7.950652
196 2 36.150391 51.363219 4.682382
197 2 36.6769 52.064479 3.32484
198 5 36.895602 51.881512 4.296035
199 2 33.945711 10.846159 13.78436
200 2 32.776142 11.178756 14.848964
201 5 33.024029 11.187914 13.867641
202 2 31.696829 36.250183 6.027748
203 2 31.153161 37.603984 6.723122
204 5 30.969414 36.618507 6.583119
205 2 11.97618 15.452378 13.301699
206 2 12.320677 14.581375 11.984668
207 5 12.00917 14.53261 12.946496
208 2 23.11717 38.019458 1.000062
209 2 23.715234 38.637219 2.368487
210 5 23.739678 38.695764 1.358287
211 2 14.902493 36.659541 14.2524
212 2 14.188249 37.964962 14.882978
213 5 14.21431 36.953184 14.895368
214 2 32.606086 36.562228 8.050071
215 2 31.395285 35.764098 8.763404
216 5 32.372428 36.017238 8.8385
217 2 1.876745 48.078227 15.250879
218 2 1.166047 48.0405 13.799886
219 5 1.001035 48.096376 14.79697
220 2 3.998112 30.44152 7.071039
221 2 3.73206 30.919836 8.591672
222 5 3.292006 30.714603 7.703551
223 2 16.942128 16.326974 10.086298
224 2 16.430836 16.352098 11.619219
225 5 16.339999 15.880969 10.727977
226 2 25.356713 23.507269 5.934557
227 2 24.779127 23.569859 7.442659
228 5 24.793163 23.028466 6.587543
229 2 6.786925 35.130037 3.715476
230 2 6.250151 35.149763 2.191212
231 5 5.969972 35.107417 3.162929
232 2 11.07377 12.954024 3.736192
233 2 11.769341 13.299473 2.318891
234 5 11.513195 12.550957 2.95027
235 2 5.440186 55.640414 2.019287
236 2 6.497953 54.741276 2.846679
237 5 6.401212 55.51906 2.206194
238 2 14.29133 7.148301 2.211406
239 2 14.874677 7.21784 3.716984
240 5 14.724297 7.745551 2.866435
241 2 27.914647 19.649332 2.980138
242 2 27.856968 19.316089 4.560492
243 5 28.414659 19.230309 3.720165
244 2 19.530101 30.021655 6.042092
245 2 18.692011 31.328307 6.491718
246 5 18.781912 30.610484 5.78378
247 2 36.895816 11.736002 4.334801
248 2 36.792482 12.061619 5.914418
249 5 36.897245 12.46983 4.994138
250 2 20.586349 52.623657 4.726047
251 2 19.091315 52.393631 4.156963
252 5 20.06084 52.524088 3.897098
253 2 34.577696 1.153568 11.652755
254 2 33.96011 0.995064 10.167709
255 5 33.739024 1.195292 11.134952
256 2 13.194616 28.180875 12.093215
257 2 13.726126 26.872522 11.307335
258 5 13.62822 27.878859 11.260145
259 2 29.629211 55.983802 1.002335
260 2 29.695475 56.818322 2.384753
261 5 30.212582 56.555928 1.555129
262 2 7.744888 10.495452 9.148812
263 2 8.343343 11.848124 8.497639
264 5 8.570684 11.023987 9.039526
265 2 31.54159 51.267347 2.293037
266 2 31.414547 52.254967 1.020103
267 5 30.894984 51.759305 1.733476
268 2 32.653139 46.167383 8.854757
269 2 32.46725 46.141053 10.459951
270 5 31.991354 46.280557 9.577574
271 2 5.624908 8.839282 4.273656
272 2 6.194821 7.70986 3.267922
273 5 5.514271 8.451672 3.37324
274 2 5.444969 9.695102 15.376856
275 2 5.592211 8.945065 13.952897
276 5 5.19508 9.74812 14.423979
277 2 32.173197 25.582363 5.380013
278 2 33.122326 26.110368 4.183242
279 5 32.923285 25.326869 4.792373
280 2 14.405292 17.936921 2.896153
281 2 13.847358 18.194499 1.401409
282 5 13.943751 18.59613 2.325491
283 2 33.157063 42.019722 5.104366
284 2 32.702122 42.359932 3.591362
285 5 32.932809 42.760006 4.492058
286 2 34.811113 30.027082 5.598526
287 2 34.801871 29.526156 4.06201
288 5 35.112551 29.303691 4.999301
289 2 23.571616 32.849031 10.460037
290 2 23.730974 32.997882 12.061393
291 5 23.980895 33.401549 11.167459
292 2 26.625365 5.242321 14.224226
293 2 26.450103 6.231816 15.489958
294 5 25.992714 5.854309 14.669708
295 2 16.346937 19.390063 6.786141
296 2 15.300819 19.835316 7.934741
297 5 15.493057 19.148079 7.216914
298 2 36.400695 56.823898 6.928942
299 2 36.591748 56.13719 5.478484
300 5 35.92128 56.35666 6.204317
301 2 16.610458 55.01692 8.241325
302 2 16.168342 55.345237 6.721905
303 5 16.49754 55.748987 7.589743
304 2 35.982549 31.167405 3.154333
305 2 35.950305 30.790238 1.583155
306 5 35.391338 30.868398 2.423378
307 2 22.041194 34.339777 3.774946
308 2 21.260108 34.247566 2.363105
309 5 22.040035 33.887295 2.898311
310 2 22.185474 11.185558 18.051745
311 2 23.42818 11.307021 17.025672
312 5 22.425443 11.406983 17.120822
313 2 30.129753 49.59064 7.865673
314 2 29.733496 49.892971 9.403032
315 5 29.400019 49.515108 8.525228
316 2 6.23829 44.96673 8.325991
317 2 4.639985 44.962092 8.086625
318 5 5.541854 44.92935 7.628272
319 2 30.863538 30.001567 16.33053
320 2 30.450601 29.428653 17.784197
321 5 30.792298 29.175814 16.865588
322 2 24.842316 56.703128 12.180475
323 2 25.976171 56.815601 13.326607
324 5 24.984878 56.701679 13.156643
325 2 28.722902 22.681736 9.396873
326 2 30.068018 23.484484 9.794561
327 5 29.336531 23.395149 9.100678
328 2 15.078185 1.936504 3.395188
329 2 13.781679 0.999092 3.166655
330 5 14.790668 1.004529 3.246905
331 2 14.76727 20.078728 12.714219
332 2 15.701009 19.979811 14.029606
333 5 15.641777 19.761849 13.042939
334 2 1.906518 51.022362 5.120112
335 2 1.97302 49.898266 3.960853
336 5 1.351691 50.455127 4.533901
337 2 28.802852 4.613207 3.224897
338 2 29.071794 5.54547 4.517357
339 5 29.102057 4.597141 4.164817
340 2 20.969544 37.695424 14.261075
341 2 21.732726 37.992421 15.654359
342 5 21.149053 38.395671 14.932388
343 2 14.93034 13.860366 16.00581
344 2 15.191005 14.544374 17.446672
345 5 14.536774 14.465324 16.678389
346 2 5.151222 29.737854 10.06237
347 2 5.279529 29.360458 8.496163
348 5 4.916076 29.055164 9.390157
349 2 16.626928 41.415344 8.054882
350 2 15.790617 41.395476 9.437663
351 5 15.863539 40.990337 8.512962
352 2 13.291757 28.629654 17.837
353 2 13.393312 27.311223 16.907848
354 5 12.947138 27.712328 17.723061
355 2 36.756813 32.061314 11.016722
356 2 36.895752 31.331453 12.451955
357 5 36.280088 31.489815 11.664296
358 2 7.174798 56.8232 9.526412
359 2 5.653051 56.810472 10.07049
360 5 6.250691 56.57238 9.289038
361 2 29.8631 45.495733 8.64511
362 2 28.312057 45.388843 9.086399
363 5 28.970658 45.892401 8.505708
364 2 6.220078 43.234645 6.401302
365 2 7.681742 43.878011 6.649325
366 5 6.967658 43.69834 5.954825
367 2 36.163721 1.036755 10.133802
368 2 35.536507 2.523458 10.224421
369 5 36.372216 1.971443 10.370698
370 2 6.692755 3.244523 16.511472
371 2 7.005909 3.77637 15.017829
372 5 7.248888 3.081967 15.713022
373 2 32.031405 12.054995 11.352397
374 2 33.442688 11.349509 11.702349
375 5 32.754603 11.49993 10.97541
376 2 15.180788 45.116124 5.17945
377 2 13.921837 44.473494 5.963009
378 5 14.786604 44.263438 5.48074
379 2 24.043373 52.844251 1.824324
380 2 24.605857 54.078123 0.945081
381 5 24.667339 53.608233 1.83948
382 2 32.823233 15.705355 2.791872
383 2 32.754253 15.138892 4.303909
384 5 33.319103 15.657717 3.643385
385 2 7.346153 28.352702 4.004789
386 2 7.790066 27.992296 5.516392
387 5 7.923899 28.640712 4.750773
388 2 31.201334 0.995192 10.719348
389 2 31.296554 1.094257 9.109063
390 5 31.787819 1.272106 9.975987
391 2 26.346443 36.416286 15.018651
392 2 25.491934 35.330124 15.856483
393 5 26.424786 35.608035 15.578851
394 2 19.126565 42.339922 11.884342
395 2 18.140601 41.614625 12.93967
396 5 18.24154 41.914289 11.978139
397 2 2.963177 30.00972 12.082245
398 2 1.44466 30.116408 12.625036
399 5 2.335082 29.652677 12.753995
400 2 23.29249 24.082137 8.981607
401 2 22.653206 25.192772 7.996873
402 5 23.469337 24.948069 8.543295
403 2 33.865069 17.809367 4.287412
404 2 33.374366 18.914333 5.359865
405 5 34.013714 18.145483 5.202923
406 2 8.937837 38.60204 1.783325
407 2 9.452631 37.832869 3.108186
408 5 9.697755 38.520581 2.40712
409 2 15.087235 50.1563 16.496327
410 2 14.90433 50.742254 15.001302
411 5 15.39497 50.861238 15.878595
412 2 24.3227 17.199207 3.032693
413 2 23.687199 16.099174 4.031674
414 5 24.55155 16.47811 3.665842
415 2 8.048965 7.071779 18.043629
416 2 6.746518 6.493583 18.806006
417 5 7.212179 6.566573 17.91026
418 2 26.122197 46.249662 16.664494
419 2 26.631753 47.759753 16.396399
420 5 26.745007 46.791428 16.124282
421 2 23.546596 51.183793 11.975077
422 2 23.310363 51.322932 10.382366
423 5 23.196854 51.78521 11.275642
424 2 6.302095 13.108805 9.690534
425 2 5.255689 13.797757 8.669615
426 5 5.710039 13.888586 9.569528
427 2 29.01346 27.209779 2.231495
428 2 28.084025 27.52739 3.514916
429 5 28.571906 26.797372 3.011355
430 2 20.816387 20.845023 4.134671
431 2 20.21152 20.412868 5.569688
432 5 21.060467 20.497153 5.024975
433 2 24.50801 8.075622 6.99032
434 2 25.525991 9.294181 6.68911
435 5 24.936489 8.589064 6.265052
436 2 28.823237 44.948165 15.426628
437 2 29.16587 44.701445 16.986637
438 5 28.516235 44.484353 16.241404
439 2 14.54344 8.961047 12.742115
440 2 15.07734 9.655012 11.383712
441 5 14.820455 8.775419 11.813656
442 2 4.695164 11.646525 9.346237
443 2 3.537145 11.926369 10.438289
444 5 3.859316 12.146146 9.504248
445 2 30.402003 52.735528 12.19792
446 2 31.068851 53.881483 11.273801
447 5 30.324577 53.197786 11.329845
448 2 28.922305 21.528151 3.533468
449 2 28.456225 23.064719 3.716834
450 5 28.131302 22.115749 3.581154
451 2 23.280551 37.73415 6.524768
452 2 22.307219 36.760071 5.678782
453 5 22.427297 37.24036 6.561636
454 2 34.627346 4.467538 12.771575
455 2 34.882612 2.884579 12.974006
456 5 35.28805 3.805358 13.084974
457 2 25.530107 37.399993 1.780491
458 2 26.236304 38.778431 1.318876
459 5 25.770985 37.941219 0.991642
460 2 34.41575 25.902328 9.15945
461 2 33.565248 25.986231 7.787771
462 5 33.499443 25.89788 8.793948
463 2 1.001039 21.045874 9.760252
464 2 1.337101 19.945015 8.625763
465 5 1.251141 20.936149 8.812286
466 2 17.867932 22.269326 9.987338
467 2 19.003361 22.014144 11.108756
468 5 18.035408 22.269741 10.959543
469 2 4.978983 52.202006 5.524941
470 2 3.890274 53.163819 4.816758
471 5 4.858894 53.083919 5.099455
472 2 2.519136 8.235275 9.932084
473 2 3.517457 7.523683 8.879047
474 5 2.61625 7.456079 9.33488
475 2 32.01684 30.210213 13.529221
476 2 30.980619 31.087018 14.406351
477 5 31.273581 30.146241 14.174748
478 2 4.526362 3.524555 1.483218
479 2 4.82318 2.357923 2.561534
480 5 4.122339 3.000869 2.215167
481 2 7.021616 2.583379 1.875828
482 2 6.999324 1.61366 3.168517
483 5 7.047437 1.638354 2.157773
484 2 15.600548 47.508467 15.732931
485 2 15.263961 48.37437 14.410503
486 5 15.834071 48.33399 15.24589
487 2 8.962001 8.429407 16.572764
488 2 9.545965 8.55805 15.07132
489 5 8.893227 8.950554 15.737955
490 2 31.075061 2.919282 3.810585
491 2 31.4803 4.095824 2.77936
492 5 30.715824 3.527955 3.122329
493 2 24.763679 34.218164 3.017809
494 2 25.707669 34.611789 4.269143
495 5 24.751241 34.56553 3.941071
496 2 13.874984 17.666847 7.054148
497 2 14.862203 16.530115 6.466666
498 5 14.662211 17.112775 7.269808
499 2 28.463461 7.432963 3.565344
500 2 29.869701 6.939999 2.939747
501 5 29.24961 7.732371 3.050024
502 2 23.898433 28.534272 15.857699
503 2 23.494807 29.15969 14.423184
504 5 24.268037 28.942615 15.039237
505 2 21.700301 42.883576 3.198335
506 2 21.515933 42.560198 1.625653
507 5 21.551477 42.15343 2.55183
508 2 7.911624 36.834909 16.891578
509 2 9.097514 36.759165 15.796213
510 5 8.10148 36.65194 15.940942
511 2 33.740939 37.594368 2.349405
512 2 32.71083 38.131407 1.225857
513 5 32.848169 37.445128 1.957079
514 2 3.024743 7.98472 12.208827
515 2 4.024408 7.49931 13.382259
516 5 3.151136 7.302282 12.909922
517 2 3.321986 8.040448 1.647312
518 2 3.336287 8.724501 3.111471
519 5 2.836134 8.667978 2.233303
520 2 32.718919 22.978039 1.060218
521 2 33.019314 22.717231 2.626627
522 5 33.293485 23.253723 1.81328
523 2 9.621826 13.770811 2.298657
524 2 9.950288 12.464104 1.406175
525 5 9.641791 13.427597 1.373975
526 2 19.769057 4.216619 8.764846
527 2 19.380636 3.665305 7.296146
528 5 19.009748 4.03929 8.160499
529 2 26.00752 14.099732 15.778805
530 2 25.618602 14.238202 17.341323
531 5 25.328641 13.85377 16.451008
532 2 26.464193 13.110067 5.94661
533 2 26.137799 13.928847 4.592003
534 5 26.638367 13.137309 4.975965
535 2 19.036522 49.713482 4.115758
536 2 18.795554 50.624021 5.429055
537 5 19.491854 50.129687 4.885614
538 2 9.343561 21.750468 13.496517
539 2 8.718734 20.428068 14.184083
540 5 9.406108 21.16387 14.287227
541 2 5.141696 7.260959 17.383715
542 2 4.781774 7.597009 15.844422
543 5 5.091879 7.992058 16.723228
544 2 33.26783 13.069391 8.485586
545 2 33.819062 14.087169 7.357682
546 5 33.812725 13.880269 8.348479
547 2 10.574473 24.360505 15.073271
548 2 11.718153 23.599924 14.221561
549 5 11.482731 24.459631 14.701152
550 2 6.210309 19.408257 4.215975
551 2 7.778355 19.476665 4.601266
552 5 6.982939 20.017624 4.286296
553 2 11.155738 46.115604 3.994938
554 2 11.527537 45.490576 5.438199
555 5 11.783481 45.512547 4.45915
556 2 22.978046 48.057611 6.893636
557 2 22.737445 46.929139 8.025253
558 5 23.44111 47.457527 7.525064
559 2 34.295588 46.566862 4.720379
560 2 32.746287 47.000474 4.566942
561 5 33.369048 46.258907 4.861515
562 2 28.919737 21.421377 7.598685
563 2 28.631548 20.308839 6.462418
564 5 28.648165 20.483262 7.459327
565 2 5.773051 38.556715 5.279313
566 2 5.850091 37.648836 6.614123
567 5 5.257971 38.260816 6.066947
568 2 23.016094 34.393104 16.450528
569 2 22.547711 33.662588 15.087128
570 5 22.245062 33.971379 16.002322
571 2 11.570472 33.592531 17.030349
572 2 11.770363 33.644701 18.633227
573 5 11.629888 34.204587 17.801769
574 2 17.653298 49.640396 1.004168
575 2 17.727536 49.020523 2.494853
576 5 18.235632 49.146076 1.62848
577 2 20.835379 56.168046 3.378081
578 2 20.252164 54.666408 3.507854
579 5 20.753391 55.400361 3.992222
580 2 9.971828 5.094762 3.65685
581 2 9.704638 4.69032 2.11512
582 5 9.377375 5.257937 2.886636
583 2 3.288836 34.550077 5.558345
584 2 2.762126 34.538413 4.030491
585 5 2.779882 35.069689 4.891861
586 2 29.488183 4.216239 6.557734
587 2 30.327278 5.577434 6.32329
588 5 30.349303 4.658649 6.747407
589 2 24.269456 43.35706 1.003273
590 2 23.569762 43.76252 2.402533
591 5 23.680535 44.023135 1.430763
592 2 15.081295 4.149465 7.461667
593 2 15.880838 5.527764 7.731705
594 5 15.107353 4.950565 8.036812
595 2 15.330157 29.062865 6.167287
596 2 16.794919 28.926968 5.498032
597 5 15.81657 28.688843 5.394797
598 2 30.230433 40.1161 3.812754
599 2 30.59313 41.39318 4.73439
600 5 29.869624 40.959987 4.174559
601 2 25.993574 49.155291 13.74818
602 2 27.242374 48.3409 14.372006
603 5 26.812559 48.658413 13.512372
604 2 9.433956 37.952155 10.961086
605 2 8.820633 36.765355 10.051561
606 5 9.530094 36.996602 10.735459
607 2 6.09998 5.694012 1.935097
608 2 7.374743 4.921617 1.310372
609 5 6.438029 4.804308 1.67552
610 2 15.009159 26.161108 13.411459
611 2 15.38301 27.588035 14.071769
612 5 14.660084 27.065755 13.593096
613 2 17.046776 35.667984 1.197191
614 2 17.961505 35.471506 2.514978
615 5 17.027809 35.37022 2.137514
616 2 14.182563 10.082935 5.695262
617 2 13.973532 9.088307 4.438712
618 5 13.498032 9.668353 5.1184
619 2 10.511165 42.268208 12.173047
620 2 12.091602 42.297225 12.509607
621 5 11.254018 42.86097 12.437685
622 2 15.297306 12.86772 5.047722
623 2 16.472501 13.224589 6.098178
624 5 15.605351 12.717765 5.972845
625 2 15.48101 53.132803 16.036847
626 2 16.574519 53.233607 14.85111
627 5 16.442422 53.257755 15.854352
628 2 17.691563 7.140402 15.327071
629 2 18.496287 8.105094 14.310368
630 5 17.622836 7.618074 14.466642
631 2 26.338182 29.345625 13.073831
632 2 27.554016 30.409664 13.112061
633 5 27.313313 29.430197 13.197109
634 2 31.606583 19.105774 8.081026
635 2 32.564573 17.808643 7.973317
636 5 32.090224 18.528884 7.443437
637 2 28.856131 22.31717 14.592533
638 2 30.281077 23.050949 14.799877
639 5 29.331554 23.173022 14.471197
640 2 16.008087 51.362077 3.879513
641 2 17.018034 52.159262 4.85747
642 5 16.690333 52.074252 3.903577
643 2 35.650739 53.449162 5.521165
644 2 36.271481 54.307682 4.300707
645 5 36.483566 53.853036 5.179823
646 2 30.876372 51.017212 10.91061
647 2 30.369118 50.551291 12.372631
648 5 30.085505 50.710132 11.414059
649 2 28.120699 32.798419 7.454468
650 2 28.475635 31.390093 8.163366
651 5 27.888687 32.213171 8.213999
652 2 19.569558 48.453119 13.345153
653 2 20.895507 47.786149 12.705695
654 5 20.123008 48.415969 12.529345
655 2 11.695486 20.63625 11.878114
656 2 11.79919 20.9743 10.301135
657 5 12.276993 21.039981 11.191033
658 2 18.591888 36.172118 11.194123
659 2 18.599884 35.574476 9.692571
660 5 18.51108 35.338468 10.672847
661 2 1.845895 20.993884 6.002164
662 2 2.1128 22.570996 5.771136
663 5 1.3983 21.868753 5.915607
664 2 25.712514 1.443159 7.161635
665 2 25.741466 1.000876 5.607465
666 5 25.196123 0.980353 6.459936
667 2 18.161835 13.668821 0.99643
668 2 18.564139 13.777265 2.557932
669 5 18.128606 13.189741 1.858178
670 2 30.671443 15.204549 12.476885
671 2 31.549249 14.392947 11.389386
672 5 31.359493 15.308284 11.777558
673 2 18.288733 54.753922 6.731536
674 2 19.742035 54.83795 6.029575
675 5 18.977792 54.219458 6.270259
676 2 29.802938 41.921737 8.03846
677 2 30.660575 41.136937 6.915766
678 5 30.082587 41.948799 7.092788
679 2 18.9159 51.081545 2.385957
680 2 18.901413 51.948892 1.022361
681 5 18.999507 51.99727 2.028623
682 2 30.982213 13.916592 14.672037
683 2 31.489605 13.163251 13.335277
684 5 31.302643 13.051019 14.323698
685 2 12.805206 19.722754 6.504036
686 2 12.31529 19.918693 8.031611
687 5 12.34709 19.272774 7.252955
688 2 36.414413 43.013883 15.985285
689 2 36.724471 44.596162 16.095519
690 5 36.46558 43.849377 15.46321
691 2 7.859375 41.664509 11.12466
692 2 7.406281 41.850413 12.664803
693 5 7.347117 41.244853 11.8559
694 2 6.298871 26.604165 9.710841
695 2 6.665199 27.352456 11.095674
696 5 6.022447 27.334276 10.313966
697 2 34.297106 2.953145 16.632734
698 2 32.724398 2.58201 16.605448
699 5 33.648881 2.235905 16.829209
700 2 22.571855 43.357236 13.345643
701 2 21.277096 43.345933 14.312787
702 5 22.270214 43.156743 14.263274
703 2 27.201994 9.106348 4.870318
704 2 26.837773 7.708311 5.594701
705 5 27.441106 8.520387 5.627092
706 2 5.645892 9.429264 1.101806
707 2 6.280676 7.94314 1.082237
708 5 5.418662 8.470157 1.143168
709 2 11.848245 15.428117 16.797599
710 2 13.0553 15.581475 17.861269
711 5 12.518249 16.060842 17.149713
712 2 7.515084 13.898148 6.898894
713 2 6.721014 13.316923 5.616893
714 5 7.637794 13.505327 6.002309
715 2 10.247363 49.646451 15.155828
716 2 10.58458 49.002238 13.712509
717 5 10.929095 49.13955 14.654306
718 2 14.447628 34.577251 17.202132
719 2 15.877161 34.508719 16.451375
720 5 15.258688 35.098696 16.993543
721 2 25.101422 4.396258 5.263589
722 2 24.690422 3.095131 6.129639
723 5 24.693344 4.107195 6.113968
724 2 16.076165 31.878622 11.693
725 2 16.873215 30.914686 10.669558
726 5 16.461576 30.976108 11.592221
727 2 2.33135 52.525215 12.369963
728 2 3.271547 51.371627 11.739757
729 5 3.086624 52.366657 11.755431
730 2 12.967751 52.19776 12.53605
731 2 12.923047 50.637434 12.954715
732 5 13.505461 51.464492 12.918695
733 2 19.022492 9.700021 3.190384
734 2 18.53462 11.137394 2.635555
735 5 18.54994 10.528127 3.443693
736 2 36.861305 23.722248 4.088464
737 2 35.455256 23.050336 4.516779
738 5 36.268151 22.951782 3.921787
739 2 21.111654 56.774541 13.629592
740 2 22.334408 56.829184 12.574233
741 5 21.945767 56.322312 13.35945
742 2 9.500945 54.228771 15.386404
743 2 11.114486 54.1375 15.379319
744 5 10.259266 53.601809 15.457809
745 2 25.422287 46.695836 8.102185
746 2 26.608878 46.779909 7.008189
747 5 25.624946 46.584482 7.143144
748 2 14.784965 36.636753 5.771941
749 2 13.265592 36.997452 6.188233
750 5 13.904057 36.893677 5.409695
751 2 20.903015 55.179558 1.235848
752 2 22.024991 54.04839 0.964695
753 5 21.375798 54.417932 1.647714
754 2 35.279624 39.577351 12.420513
755 2 36.096155 39.919421 13.772607
756 5 35.450992 40.286568 13.084497
757 2 5.90303 56.765562 12.818622
758 2 4.534476 56.689916 11.962331
759 5 5.284129 56.143697 12.367537
760 2 22.357741 39.33517 4.396864
761 2 21.309831 38.819016 5.513719
762 5 21.738246 38.601422 4.622853
763 2 9.110057 35.55859 5.014525
764 2 8.99618 35.451327 3.405978
765 5 8.810017 36.040496 4.207695
766 2 26.39768 5.92994 4.378569
767 2 26.628284 4.925491 3.13366
768 5 26.964814 5.764813 3.588428
769 2 28.863398 16.470352 3.626467
770 2 29.562115 16.82663 5.039534
771 5 28.985441 17.189287 4.290899
772 2 5.483675 8.589049 6.454176
773 2 6.415849 8.648106 7.773062
774 5 6.134279 8.074418 6.988124
775 2 1.462134 7.3853 5.901735
776 2 2.732991 6.972255 6.810698
777 5 2.018908 7.674279 6.663132
778 2 26.569038 17.292465 9.489817
779 2 25.442849 16.280098 8.925276
780 5 25.602534 17.095215 9.503733
781 2 3.905418 12.129415 7.305394
782 2 3.324442 12.315496 5.808819
783 5 4.16847 12.215444 6.358487
784 2 35.43516 24.79679 5.855878
785 2 36.895672 25.454037 5.639482
786 5 35.966705 25.363409 5.247903
787 2 21.714025 7.124544 3.267235
788 2 21.731908 6.573131 4.786287
789 5 21.257267 6.514995 3.894175
790 2 3.628594 13.574968 0.999836
791 2 2.472668 12.446995 1.058207
792 5 3.195277 12.914565 1.590881
793 2 30.946506 22.60939 11.611906
794 2 29.731608 21.928196 12.431598
795 5 30.579056 22.474984 12.517525
796 2 7.256626 34.467936 12.055733
797 2 7.617532 35.673618 13.069622
798 5 7.710017 34.679017 12.906093
799 2 36.893431 45.618002 9.6384
800 2 36.666897 45.500497 11.23426
801 5 36.307075 45.226845 10.328628
802 2 27.755989 55.962075 12.356989
803 2 27.699551 56.785536 10.967521
804 5 27.26211 56.049595 11.507487
805 2 31.218949 9.107727 8.937894
806 2 31.89351 8.124654 7.846825
807 5 31.055707 8.307448 8.384598
808 2 21.530828 33.519533 12.209497
809 2 21.187645 34.538843 11.003209
810 5 21.927495 34.180268 11.59361
811 2 17.343884 20.894449 15.775305
812 2 18.428072 20.819075 16.971446
813 5 17.961178 21.437659 16.320376
814 2 1.132773 34.010863 7.113046
815 2 1.908222 32.952131 6.169827
816 5 0.999863 33.323138 6.418352
817 2 15.503377 28.134334 17.388461
818 2 15.890896 28.675257 15.915665
819 5 16.119397 28.730432 16.900181
820 2 27.89222 41.950949 16.308408
821 2 27.014655 42.003845 14.95232
822 5 27.844264 42.358364 15.411222
823 2 16.00543 8.007144 7.154976
824 2 15.579075 8.136038 5.60143
825 5 15.354041 8.426889 6.544454
826 2 9.543639 17.44973 13.318849
827 2 10.128095 18.359426 12.1177
828 5 10.368035 17.679571 12.82816
829 2 21.686584 26.315644 11.417243
830 2 22.17261 24.979362 10.649111
831 5 22.042706 25.9793 10.560924
832 2 17.563618 52.353023 13.081927
833 2 17.702913 51.491214 11.721861
834 5 17.607877 51.43327 12.727912
835 2 19.461003 3.326799 16.001086
836 2 20.218703 3.358732 14.573933
837 5 20.047538 2.804928 15.403711
838 2 9.335997 54.683655 1.904336
839 2 9.332707 54.822888 3.514459
840 5 9.918472 54.818794 2.688996
841 2 31.956938 15.695271 8.038434
842 2 33.227398 15.952015 9.003788
843 5 32.302553 15.544221 8.950007
844 2 29.370977 55.93218 4.528795
845 2 29.527941 54.459279 5.175186
846 5 28.869909 55.195327 4.952127
847 2 27.288031 5.596415 12.070944
848 2 26.037455 4.582213 12.210048
849 5 26.60663 5.103519 11.555215
850 2 24.369855 55.966875 6.703709
851 2 23.556321 54.614519 6.355583
852 5 24.285481 55.241719 6.040188
853 2 24.743953 24.331135 18.280899
854 2 24.733855 23.501528 16.893979
855 5 24.635079 23.428209 17.898666
856 2 12.793452 19.014277 10.364904
857 2 13.778786 18.650809 9.136529
858 5 13.732812 18.821609 10.133144
859 2 26.053696 24.013112 11.779166
860 2 25.237202 24.188148 13.162855
861 5 26.029258 24.518412 12.626105
862 2 31.791891 32.252329 12.727095
863 2 31.066382 31.919546 11.321824
864 5 31.015263 31.795725 12.32511
865 2 36.517074 18.141082 3.466031
866 2 36.502033 18.904458 4.890435
867 5 36.025449 18.219315 4.317744
868 2 9.760289 51.898238 8.107589
869 2 10.465285 52.798394 6.9654
870 5 10.084959 51.884351 7.176124
871 2 15.656399 49.65414 1.951339
872 2 14.421998 49.218706 1.003422
873 5 15.418089 49.396638 1.029313
874 2 25.502668 56.811301 3.800316
875 2 25.184991 55.226969 3.829834
876 5 24.974933 56.100894 3.364368
877 2 28.071141 54.741573 2.953278
878 2 28.603875 54.045666 1.59541
879 5 28.397915 53.891365 2.574338
880 2 10.624932 41.801419 7.214369
881 2 10.92777 40.780964 8.430451
882 5 10.314467 41.518351 8.106957
883 2 0.98879 44.702898 2.934249
884 2 2.469932 44.306641 3.445223
885 5 1.94918 44.797828 2.729626
886 2 6.702709 55.080743 5.163815
887 2 8.155333 54.60733 5.690748
888 5 7.597402 54.790487 4.866313
889 2 11.074792 9.871073 14.189119
890 2 10.472848 9.608256 12.712472
891 5 11.324407 9.738001 13.244018
892 2 28.286038 29.199825 8.181398
893 2 28.774268 29.170461 6.641052
894 5 28.867814 28.722182 7.543727
895 2 11.733949 52.868553 8.858143
896 2 11.215082 51.614746 9.736006
897 5 11.751302 52.472847 9.761662
898 2 12.235633 55.30928 16.959799
899 2 12.785527 56.823689 16.833005
900 5 12.059533 56.183277 16.537485
901 2 22.66463 5.154432 15.823113
902 2 21.81057 3.839529 16.214912
903 5 22.205063 4.366983 15.446346
904 2 17.304034 50.596319 9.751575
905 2 17.004637 49.292647 8.84455
906 5 16.723367 49.802734 9.672333
907 2 17.344078 51.024974 14.872828
908 2 18.11464 51.593747 16.174606
909 5 17.601617 50.805898 15.799602
910 2 16.446889 47.444954 4.92627
911 2 16.390306 48.905241 4.236156
912 5 16.897395 48.029969 4.272027
913 2 6.074719 45.80443 3.739807
914 2 7.023176 45.704069 5.044511
915 5 6.755213 46.289855 4.263756
916 2 23.27354 41.397235 1.002441
917 2 23.289362 40.805792 2.506383
918 5 23.812758 40.875318 1.642814
919 2 25.021403 13.86572 1.334259
920 2 25.37571 14.694389 2.675778
921 5 25.529609 13.826093 2.178882
922 2 18.067084 31.891958 8.882938
923 2 18.440887 33.422974 9.24093
924 5 18.217178 32.783739 8.488693
925 2 19.282391 50.37096 10.681153
926 2 20.33094 49.623464 9.704582
927 5 19.765736 49.522915 10.538226
928 2 15.650177 24.288121 14.873013
929 2 14.612147 23.417054 15.753714
930 5 14.888788 23.663799 14.811846
931 2 20.369623 29.09678 11.548863
932 2 20.759384 28.837168 10.002065
933 5 20.504184 28.390236 10.873645
934 2 33.615516 36.615089 5.017936
935 2 33.466657 35.180914 4.28795
936 5 34.127328 35.876379 4.611012
937 2 32.525393 51.231793 5.614538
938 2 32.917988 51.434577 7.169093
939 5 32.439493 50.831374 6.512043
940 2 5.235364 48.998544 12.297386
941 2 4.288405 49.798945 13.333978
942 5 5.050682 49.891251 12.674478
943 2 8.626953 33.069424 11.055034
944 2 7.740497 31.820458 10.539113
945 5 7.817861 32.829675 10.544034
946 2 10.489926 39.813643 10.356749
947 2 9.190983 40.568795 9.761443
948 5 9.916395 40.608823 10.466215
949 2 29.356699 37.467548 14.106006
950 2 28.42448 38.750999 13.796788
951 5 28.420477 37.758817 13.997005
952 2 11.002052 7.036191 3.559299
953 2 9.480295 7.263434 4.05378
954 5 10.222179 7.634257 3.473586
955 2 30.226123 7.830778 11.753922
956 2 28.84193 7.146077 12.230462
957 5 29.563246 7.138465 11.520411
958 2 2.203347 55.738695 4.476379
959 2 3.077135 54.912456 3.396694
960 5 2.319959 55.574444 3.510638
961 2 35.002919 50.441289 7.383091
962 2 35.06667 52.055801 7.348708
963 5 35.371175 51.229642 7.847975
964 2 27.022779 18.94241 8.10746
965 2 26.52886 19.590731 9.503031
966 5 27.340057 19.356158 8.944943
967 2 17.142927 52.94626 9.099027
968 2 17.763622 52.817131 7.612435
969 5 17.301626 52.313455 8.359025
970 2 21.513676 30.170721 15.741857
971 2 22.830024 30.274972 16.673658
972 5 21.962588 30.730246 16.419087
973 2 36.08917 33.866022 18.149505
974 2 36.774905 34.349576 16.76826
975 5 35.894303 34.145409 17.223654
976 2 31.620502 7.074106 13.273189
977 2 31.50585 6.062217 12.018267
978 5 32.142404 6.629197 12.564032
979 2 27.929108 35.12449 13.0115
980 2 26.525807 34.507107 13.52285
981 5 27.451693 34.797743 13.810588
982 2 17.748457 10.530792 9.618208
983 2 18.534888 11.429788 10.706889
984 5 18.505797 11.152305 9.733912
985 2 16.20933 38.253448 3.85285
986 2 17.574928 38.79684 4.524982
987 5 16.584341 38.972852 4.414148
988 2 9.131309 21.784748 10.23252
989 2 8.086403 22.512211 11.227942
990 5 9.029232 22.154256 11.141517
991 2 20.231949 11.216021 5.572165
992 2 21.251555 10.466973 6.577762
993 5 20.368463 10.957541 6.514387
994 2 18.973255 6.403236 6.082754
995 2 20.413508 5.709437 6.319844
996 5 19.461824 5.769143 6.659345
997 2 22.227686 4.518922 18.264527
998 2 20.637984 4.228588 18.285724
999 5 21.345414 4.927858 18.098397
1000 2 34.144138 27.979317 8.502839
1001 2 34.877982 29.301675 9.072696
1002 5 34.034936 28.74328 9.117383
1003 2 33.165499 29.364962 15.841975
1004 2 32.931246 30.903348 15.405639
1005 5 33.072059 30.28238 16.192467
1006 2 4.416202 22.977274 11.587406
1007 2 4.481013 23.94725 10.296344
1008 5 4.101507 23.840682 11.228623
1009 2 28.750706 55.116551 7.468267
1010 2 27.925666 55.429577 8.822232
1011 5 28.237227 55.814731 7.939558
1012 2 16.881438 23.95098 12.236212
1013 2 15.342099 24.100333 12.705282
1014 5 16.151566 24.602471 12.363012
1015 2 19.072593 45.493477 1.044348
1016 2 18.536767 46.999449 1.282749
1017 5 18.269465 46.064735 1.000991
1018 2 1.308341 33.662291 13.515118
1019 2 1.000183 33.71977 15.100561
1020 5 1.732375 33.743984 14.402109
1021 2 25.86598 32.835369 10.156035
1022 2 26.105321 33.2369 11.703092
1023 5 26.135022 33.575836 10.749799
1024 2 2.590173 45.40671 5.340605
1025 2 4.048485 45.226873 4.667642
1026 5 3.466474 44.968072 5.454288
1027 2 18.195856 19.315186 5.597462
1028 2 18.347725 18.500532 6.984967
1029 5 18.832192 18.800706 6.148478
1030 2 26.184132 21.778604 4.54511
1031 2 26.032719 20.726446 3.327764
1032 5 26.277519 20.826362 4.304809
1033 2 5.721644 45.064857 11.98039
1034 2 5.316737 44.687346 13.498755
1035 5 4.95951 44.994237 12.602801
1036 2 30.342386 30.228315 8.17469
1037 2 30.49501 30.6232 6.614989
1038 5 30.858204 30.786335 7.545582
1039 2 18.894809 44.920851 13.843014
1040 2 19.886951 45.103414 12.580389
1041 5 19.08045 44.600575 12.928579
1042 2 36.929539 54.202192 11.57798
1043 2 36.365337 54.66997 10.137578
1044 5 36.122523 54.521484 11.108928
1045 2 36.022069 3.990252 1.717594
1046 2 36.896125 2.9823 2.629709
1047 5 36.25308 3.763725 2.649555
1048 2 32.520917 15.222831 13.797505
1049 2 33.388552 15.706276 12.522598
1050 5 33.096891 14.902062 13.063616
1051 2 10.347041 18.494771 8.447391
1052 2 10.713015 18.130881 9.978907
1053 5 11.093559 18.426145 9.088664
1054 2 12.933406 10.036075 11.696322
1055 2 11.861214 9.657491 10.547857
1056 5 12.363501 9.307284 11.353828
1057 2 6.855205 52.802011 4.049084
1058 2 7.346009 51.416758 4.721454
1059 5 7.157134 51.885402 3.844398
1060 2 11.912228 38.223697 12.608031
1061 2 11.920813 38.271381 10.992621
1062 5 11.906257 37.659494 11.798791
1063 2 11.555043 27.361929 8.51981
1064 2 12.8781 28.212479 8.891267
1065 5 12.158528 28.070901 8.193629
1066 2 23.239444 45.93179 17.00828
1067 2 22.552789 47.259523 17.622713
1068 5 22.446009 46.514692 16.945695
1069 2 36.783485 47.366521 14.950227
1070 2 36.440915 48.873989 15.421482
1071 5 36.895766 48.316605 14.70947
1072 2 6.414293 23.933333 12.632572
1073 2 6.413372 23.416271 14.163762
1074 5 5.894161 23.940452 13.47081
1075 2 34.157578 51.803043 14.123516
1076 2 34.667325 51.014865 15.439126
1077 5 33.867048 51.199005 14.847368
1078 2 27.811175 38.394797 11.340397
1079 2 28.211421 36.86786 11.687041
1080 5 28.484082 37.836396 11.797142
1081 2 33.619078 47.923132 15.761176
1082 2 34.351487 48.937031 14.73771
1083 5 34.350174 47.992858 15.102489
1084 2 6.470987 55.466696 16.674922
1085 2 5.951077 55.674369 15.158855
1086 5 6.139899 56.141973 16.036477
1087 2 4.264177 43.216511 2.793006
1088 2 4.422982 43.37846 1.192866
1089 5 4.827393 43.617684 2.089388
1090 2 9.481553 11.447456 3.554042
1091 2 9.78095 11.761536 5.110838
1092 5 9.48265 11.049148 4.456583
1093 2 6.954194 36.054115 9.08697
1094 2 7.489339 37.323507 8.24189
1095 5 6.838813 36.548044 8.240831
1096 2 21.4918 27.588478 3.31955
1097 2 21.215962 29.1182 2.877106
1098 5 21.684502 28.527543 3.552473
1099 2 17.466136 24.048569 7.217925
1100 2 16.165058 24.364396 6.312748
1101 5 16.565097 24.449733 7.238606
1102 2 25.512801 30.471326 2.937843
1103 2 25.304351 31.804159 3.827787
1104 5 25.985737 31.240422 3.335403
1105 2 28.747562 29.879387 11.135182
1106 2 28.223238 28.382161 11.443882
1107 5 28.610706 28.989196 10.732613
1108 2 21.821206 52.470127 13.940252
1109 2 23.432533 52.455673 13.816512
1110 5 22.61015 53.045534 13.799871
1111 2 23.39953 22.775476 13.935617
1112 2 22.291579 21.646874 13.603057
1113 5 23.013494 21.925806 14.255409
1114 2 7.722115 49.824273 15.871001
1115 2 7.54736 48.227352 16.047631
1116 5 8.126984 48.95332 15.645718
1117 2 3.53907 50.884448 8.721388
1118 2 3.554738 52.39903 9.285029
1119 5 3.717471 51.429098 9.524358
1120 2 11.565218 21.510081 6.175905
1121 2 10.481929 20.58866 6.943605
1122 5 10.997858 21.458672 6.981318
1123 2 21.161516 25.727825 6.47016
1124 2 21.745552 26.686417 5.307448
1125 5 21.974942 25.943251 5.955223
1126 2 9.870103 44.512111 11.97734
1127 2 11.286102 45.11226 12.473992
1128 5 10.356979 44.840791 12.7699
1129 2 1.889393 39.972695 4.703354
1130 2 1.004701 39.103233 3.667375
1131 5 1.050845 39.972621 4.183673
1132 2 12.144457 22.239713 17.524529
1133 2 11.201616 21.524221 16.424066
1134 5 11.407218 22.399593 16.888803
1135 2 14.629442 29.156101 1.560719
1136 2 14.334094 30.642739 0.99985
1137 5 15.062459 29.991176 1.263436
1138 2 9.276536 14.76331 11.6413
1139 2 10.318994 13.562259 11.928796
1140 5 10.191465 14.446267 11.452567
1141 2 30.063547 15.604216 10.024557
1142 2 29.566597 15.249639 8.528158
1143 5 29.283488 15.63264 9.421291
1144 2 1.866261 19.904055 1.020021
1145 2 1.2386 20.229419 2.473319
1146 5 2.069334 19.919184 1.9853
1147 2 21.279684 31.330136 6.285816
1148 2 22.777319 31.147013 5.706634
1149 5 21.838555 31.451621 5.48199
1150 2 7.529322 29.617203 10.91837
1151 2 8.48993 28.487594 11.561109
1152 5 8.372463 29.48188 11.412367
1153 2 7.583503 15.72297 5.672524
1154 2 7.721877 16.190243 4.131613
1155 5 8.214361 16.0932 5.010573
1156 2 24.934327 42.570513 13.659029
1157 2 25.710539 42.768627 12.255412
1158 5 25.710849 42.264478 13.133114
1159 2 30.203886 51.655748 6.831156
1160 2 29.664645 53.168083 7.01543
1161 5 30.024793 52.497276 6.348468
1162 2 24.116811 22.119385 2.32255
1163 2 24.736342 21.311955 1.067109
1164 5 24.236999 22.147798 1.343786
1165 2 21.008297 1.958134 3.625178
1166 2 22.276192 0.992317 3.892639
1167 5 21.488387 1.167674 3.281787
1168 2 30.151182 41.092971 17.669748
1169 2 31.397597 41.405251 16.68953
1170 5 30.836326 40.669696 17.099969
1171 2 16.298382 17.284925 1.838518
1172 2 15.965986 18.630906 1.00801
1173 5 16.687038 17.955544 1.228233
1174 2 7.052286 43.815166 3.759846
1175 2 6.009685 42.613323 4.043488
1176 5 6.102132 43.615377 3.934551
1177 2 31.383465 12.140263 9.135451
1178 2 31.098195 13.705942 8.85409
1179 5 31.098781 12.982839 9.562361
1180 2 35.080803 27.122722 4.263451
1181 2 36.659309 26.991789 3.942405
1182 5 35.84438 27.583662 3.841887
1183 2 23.94944 3.436352 8.542416
1184 2 22.995497 2.616971 9.557553
1185 5 23.531164 2.557043 8.700817
1186 2 35.42422 43.227805 10.075556
1187 2 35.444194 43.774147 8.554698
1188 5 35.853945 43.106644 9.195847
1189 2 30.470723 38.468903 12.496391
1190 2 30.281643 40.059236 12.713152
1191 5 30.845258 39.255369 12.959451
1192 2 12.639155 37.678073 16.849053
1193 2 11.757174 36.382079 17.241995
1194 5 11.829147 37.387725 17.331562
1195 2 16.470612 41.596904 2.922582
1196 2 17.754941 40.753647 3.423891
1197 5 16.8175 40.68206 3.048916
1198 2 7.699968 10.998872 11.5845
1199 2 6.348238 11.159608 10.71336
1200 5 6.816948 11.43838 11.566076
1201 2 25.454886 51.940753 6.96079
1202 2 24.746808 52.657242 5.697001
1203 5 25.610684 52.570117 6.217245
1204 2 25.148229 38.103924 12.097354
1205 2 26.358789 37.897396 13.147966
1206 5 25.905199 38.561907 12.533792
1207 2 5.931816 29.607168 2.879561
1208 2 5.918223 30.835124 3.930197
1209 5 5.740644 29.845003 3.817707
1210 2 23.096233 28.422883 5.567037
1211 2 23.795856 28.696606 4.136129
1212 5 23.697494 29.037964 5.08393
1213 2 24.486348 48.818184 11.187355
1214 2 25.161647 47.991124 9.974162
1215 5 25.081349 48.058859 10.980885
1216 2 5.352484 41.72579 8.300607
1217 2 6.7018 42.339162 8.944827
1218 5 5.838192 42.567795 8.468973
1219 2 11.461123 42.935383 14.625677
1220 2 10.935739 41.547728 15.266209
1221 5 10.811704 42.202708 14.504538
1222 2 23.839329 13.746005 12.530035
1223 2 23.865207 14.589517 13.908336
1224 5 24.414918 14.010248 13.28641
1225 2 23.902171 31.970382 15.452435
1226 2 23.364454 31.902065 13.929908
1227 5 23.364187 31.430884 14.825741
1228 2 5.822151 47.22993 7.59295
1229 2 5.398888 46.727888 6.116232
1230 5 6.174821 46.846173 6.755344
1231 2 24.643001 52.017467 15.601006
1232 2 24.873117 50.916411 14.440567
1233 5 25.28719 51.704217 14.92268
1234 2 17.426363 48.467635 6.610068
1235 2 18.966285 48.073125 6.318698
1236 5 18.167883 48.58892 5.970796
1237 2 24.944869 20.669183 6.047874
1238 2 24.694495 19.46589 4.998448
1239 5 24.694705 19.717401 5.978892
1240 2 8.950018 4.549143 10.863101
1241 2 7.989552 5.449394 9.925579
1242 5 8.07944 4.559368 10.399184
1243 2 3.942543 1.819734 13.552087
1244 2 3.661758 1.412382 12.013542
1245 5 3.226546 1.672466 12.889598
1246 2 8.903518 12.322664 13.06641
1247 2 10.427306 11.824519 13.270903
1248 5 9.681703 12.380708 13.669974
1249 2 13.919323 6.802526 12.176107
1250 2 14.532286 5.44117 11.557331
1251 5 14.653126 6.44399 11.622739
1252 2 1.582959 10.684743 5.587814
1253 2 2.759331 10.411268 4.513917
1254 5 2.438787 10.212841 5.453282
1255 2 4.417937 19.568809 2.951323
1256 2 4.59439 20.944979 3.780127
1257 5 3.922693 20.327082 3.342458
1258 2 34.464289 52.818907 9.860167
1259 2 33.633699 53.229132 8.535882
1260 5 33.83721 53.48638 9.493448
1261 2 26.675653 54.925582 5.769798
1262 2 26.85608 56.525485 5.909982
1263 5 26.771831 55.76027 5.25281
1264 2 31.670805 45.602437 6.829412
1265 2 31.28375 44.036257 6.925138
1266 5 31.592985 44.842345 7.453459
1267 2 35.282261 9.354469 12.55362
1268 2 35.360637 10.358888 11.289936
1269 5 35.785825 10.113694 12.17516
1270 2 26.55708 32.293881 13.654793
1271 2 25.738581 31.073328 14.327257
1272 5 25.801642 31.674862 13.515649
1273 2 25.011432 36.74639 3.81578
1274 2 23.79574 37.672128 4.342087
1275 5 24.1744 36.733446 4.337739
1276 2 22.466125 9.743911 1.474843
1277 2 22.108181 8.239856 1.004109
1278 5 21.820632 9.007985 1.597253
1279 2 20.477612 53.12604 15.68265
1280 2 19.978227 52.38952 17.031742
1281 5 20.210409 52.252887 16.056063
1282 2 8.291929 19.627427 10.452241
1283 2 8.837133 20.004941 8.978426
1284 5 9.093207 19.61541 9.87688
1285 2 29.021966 43.310896 4.560565
1286 2 30.024113 42.987941 3.334475
1287 5 29.063052 42.937999 3.648156
1288 2 4.9794 17.682349 17.001537
1289 2 4.692206 18.119179 15.47229
1290 5 5.153403 18.386407 16.332764
1291 2 31.002182 6.58435 9.949255
1292 2 30.872887 6.117725 8.40736
1293 5 30.4969 5.996291 9.339248
1294 2 18.290391 55.16588 4.409406
1295 2 17.273389 56.24614 5.050218
1296 5 18.248682 56.006762 4.923613
1297 2 5.282571 33.238811 14.896021
1298 2 5.913001 33.760496 16.289684
1299 5 5.059286 33.673782 15.752862
1300 2 19.27564 5.664601 3.460117
1301 2 17.89267 6.052964 4.2007
1302 5 18.64741 5.379436 4.165269
1303 2 33.446024 45.149169 1.521296
1304 2 33.35286 46.522932 2.367459
1305 5 33.572788 46.125765 1.462794
1306 2 29.160418 32.083232 5.653843
1307 2 29.522867 32.258311 4.088636
1308 5 29.546425 32.708003 4.99514
1309 2 20.388077 7.773406 13.237603
1310 2 21.798494 7.019871 13.471707
1311 5 21.365959 7.882593 13.166499
1312 2 20.284024 29.794781 1.007522
1313 2 20.536467 28.19851 0.998081
1314 5 19.828747 28.920489 1.047132
1315 2 26.163041 8.267245 2.423928
1316 2 25.503699 8.017382 3.87814
1317 5 26.317915 7.845123 3.302027
1318 2 19.67968 28.348639 7.473551
1319 2 21.089248 28.635145 6.736715
1320 5 20.651545 28.190182 7.533553
1321 2 23.146904 26.194358 16.3415
1322 2 23.428474 26.733655 17.838754
1323 5 22.782661 26.213742 17.258114
1324 2 33.248512 3.693634 4.906542
1325 2 31.89707 4.533189 5.190529
1326 5 32.427328 3.711913 5.452942
1327 2 9.713702 19.925602 16.080748
1328 2 9.01284 20.331534 17.479286
1329 5 8.855664 20.190159 16.489419
1330 2 6.825086 13.649647 15.786054
1331 2 6.346539 12.120783 15.572836
1332 5 6.02995 13.067508 15.7402
1333 2 7.73741 50.535944 1.906437
1334 2 7.08101 51.702544 1.000856
1335 5 6.935465 51.100871 1.801688
1336 2 4.30046 25.856878 15.386434
1337 2 4.352776 25.814297 17.001161
1338 5 4.295636 26.422907 16.194405
1339 2 17.536561 9.533387 6.586016
1340 2 17.956309 9.171753 5.067817
1341 5 17.681973 8.783678 5.961498
1342 2 35.940859 46.92776 8.149216
1343 2 35.022287 48.182791 7.709877
1344 5 35.641987 47.826154 8.426333
1345 2 24.728097 49.352088 2.790395
1346 2 25.02136 50.697081 3.637086
1347 5 24.302495 50.045818 3.347919
1348 2 36.184292 9.158539 2.557113
1349 2 36.272314 9.579548 0.999263
1350 5 35.656074 9.503364 1.79862
1351 2 14.133504 45.214998 10.792981
1352 2 13.86065 45.047149 12.377049
1353 5 14.349946 44.660583 11.579752
1354 2 17.717264 26.963751 4.69278
1355 2 16.746334 26.78267 5.971999
1356 5 17.167944 26.30774 5.183828
1357 2 27.666277 15.980163 10.872856
1358 2 27.932131 15.554488 12.409091
1359 5 28.376439 15.788624 11.530286
1360 2 21.056037 39.374962 1.201164
1361 2 21.510047 38.442638 2.440737
1362 5 21.654644 39.33441 1.984271
1363 2 16.904832 11.917014 3.887591
1364 2 15.925344 12.112099 2.616985
1365 5 16.545508 12.588 3.25998
1366 2 35.551485 1.000513 16.236973
1367 2 36.190149 2.242021 15.422933
1368 5 35.545798 1.463509 15.365863
1369 2 36.180195 34.341953 11.552226
1370 2 36.538175 33.935857 13.074998
1371 5 36.900038 34.352989 12.226715
1372 2 28.295945 17.751985 1.935308
1373 2 26.749798 17.393488 1.630665
1374 5 27.708349 17.187623 1.379017
1375 2 10.120255 10.851146 16.066134
1376 2 8.98005 11.954696 15.759532
1377 5 9.175244 11.080898 16.231659
1378 2 13.92121 16.325036 12.331956
1379 2 14.987953 15.218943 12.832469
1380 5 14.683137 16.17801 12.941121
1381 2 9.384996 3.653229 5.593532
1382 2 8.822613 2.205563 5.146449
1383 5 8.995145 3.153827 4.837328
1384 2 24.90089 2.335698 4.07712
1385 2 25.81641 2.617031 2.775363
1386 5 25.326381 3.050974 3.547433
1387 2 25.588618 51.289266 9.441535
1388 2 25.459239 50.778438 10.969348
1389 5 25.353527 50.510119 9.999112
1390 2 35.098391 11.077121 3.25092
1391 2 35.067086 11.619331 1.728775
1392 5 35.501006 11.735046 2.635886
1393 2 2.306685 4.748156 14.331982
1394 2 1.668852 3.664741 15.3475
1395 5 2.353583 4.404477 15.255517
1396 2 5.565756 28.668501 18.071317
1397 2 7.123985 28.412144 17.727659
1398 5 6.179566 28.087776 17.562173
1399 2 8.780822 35.55673 7.96785
1400 2 9.485576 34.514378 6.953591
1401 5 8.733029 34.634927 7.619676
1402 2 1.503604 4.95696 2.174073
1403 2 1.409889 6.529387 2.535442
1404 5 1.99349 5.704321 2.592039
1405 2 21.137385 16.44014 12.674255
1406 2 21.678789 16.344824 11.154488
1407 5 21.263853 16.958346 11.844376
1408 2 32.675992 52.768724 3.431079
1409 2 32.378115 54.008538 4.424066
1410 5 32.330811 53.002296 4.32524
1411 2 14.055764 37.753071 11.122826
1412 2 14.360947 38.124655 12.665772
1413 5 13.955201 38.461617 11.801854
1414 2 23.562447 49.912715 16.038098
1415 2 23.925118 49.836105 17.611151
1416 5 24.245488 50.157658 16.706445
1417 2 13.773543 51.581193 2.404414
1418 2 13.435167 50.047473 2.785337
1419 5 13.069626 50.891289 2.362393
1420 2 33.668061 29.603851 1.700605
1421 2 33.447793 28.39498 2.75037
1422 5 33.219582 29.359401 2.544608
1423 2 31.04649 21.230845 4.82814
1424 2 30.129732 19.902012 4.903325
1425 5 31.080678 20.245258 4.854229
1426 2 19.546964 50.424443 14.83722
1427 2 19.503283 51.75893 13.926653
1428 5 19.317679 50.76399 13.939797
1429 2 19.882164 30.752738 9.378218
1430 2 20.850656 30.28593 8.171566
1431 5 19.947162 30.683068 8.396305
1432 2 8.834715 46.5815 6.044261
1433 2 9.803766 45.532459 6.800799
1434 5 8.842244 45.744234 6.56595
1435 2 33.143495 1.001181 13.475639
1436 2 33.553503 2.043894 14.640345
1437 5 32.945317 1.894131 13.84523
1438 2 4.208148 36.286291 3.744719
1439 2 5.404705 36.437265 4.820523
1440 5 4.59021 36.889829 4.425161
1441 2 1.285873 26.474912 10.970444
1442 2 1.821024 26.556286 12.493233
1443 5 1.482226 27.098955 11.708852
1444 2 28.211772 10.497053 17.030534
1445 2 27.637787 10.515673 18.541193
1446 5 27.47313 10.177936 17.601326
1447 2 6.48318 25.480219 16.578904
1448 2 6.422892 25.462632 14.963988
1449 5 6.452406 26.059486 15.780947
1450 2 27.118466 30.587901 9.695884
1451 2 26.439555 30.561363 8.229504
1452 5 26.351385 30.919981 9.171919
1453 2 13.416275 33.203837 11.054639
1454 2 13.663387 32.581507 12.525536
1455 5 14.114706 32.872515 11.667543
1456 2 7.390334 48.385509 4.058926
1457 2 6.967411 48.590732 5.605184
1458 5 6.624732 48.570385 4.652985
1459 2 21.915522 36.564747 3.52431
1460 2 20.404811 36.010165 3.375691
1461 5 20.993422 36.679186 3.85577
1462 2 30.26803 2.256613 5.847516
1463 2 29.154492 1.117281 6.119268
1464 5 29.466366 1.825632 5.466964
1465 2 31.250709 32.300748 16.220815
1466 2 30.79654 32.459773 17.763649
1467 5 30.519539 32.110098 16.855065
1468 2 28.321305 23.312258 11.465075
1469 2 28.387015 24.233972 12.790979
1470 5 28.057182 23.354129 12.414663
1471 2 19.685606 39.471906 3.954732
1472 2 19.963349 41.014715 3.56167
1473 5 20.400786 40.127085 3.774483
1474 2 5.990069 49.29383 2.626633
1475 2 5.290836 49.097798 1.182839
1476 5 5.11975 49.175535 2.177432
1477 2 2.270719 39.926198 14.398227
1478 2 3.669349 40.522515 13.850379
1479 5 3.235545 39.73666 14.318112
1480 2 28.22753 48.442497 10.078801
1481 2 27.328272 47.892278 8.853857
1482 5 27.353448 48.043989 9.854295
1483 2 18.516472 43.320033 17.74719
1484 2 17.02357 43.398154 17.133157
1485 5 17.978851 43.712769 17.019212
1486 2 35.431359 42.828456 2.917723
1487 2 35.038127 41.996235 1.589313
1488 5 34.670598 42.540357 2.359626
1489 2 36.603076 6.14038 17.442652
1490 2 36.896085 6.471057 18.997224
1491 5 36.328408 6.715511 18.195654
1492 2 20.298456 18.197682 10.306187
1493 2 19.905819 16.684063 9.897912
1494 5 19.914432 17.646273 9.583896
1495 2 29.024018 35.044177 10.401318
1496 2 27.547703 34.925582 9.754535
1497 5 28.067677 34.94606 10.622715
1498 2 36.000438 5.249324 15.529994
1499 2 36.898116 4.533359 14.392689
1500 5 36.124201 4.406414 15.032586
1501 2 14.875034 53.182595 13.00428
1502 2 14.517832 54.106309 14.281407
1503 5 14.479802 53.166273 13.908026
1504 2 34.681987 37.924298 11.098757
1505 2 33.475393 37.094678 10.414828
1506 5 34.469782 37.280758 10.381779
1507 2 33.777893 6.912084 8.261979
1508 2 33.451561 6.360024 9.745432
1509 5 33.625534 6.089971 8.785572
1510 2 31.302088 35.59153 14.500051
1511 2 30.835074 34.25256 15.275263
1512 5 31.610524 34.882458 15.112681
1513 2 14.825119 3.189332 13.894552
1514 2 14.759235 3.311432 12.284382
1515 5 14.603674 3.803617 13.155061
1516 2 15.247128 56.713839 14.841514
1517 2 16.078282 56.806009 13.458551
1518 5 16.046499 56.374371 14.373541
1519 2 27.552891 19.660926 11.601442
1520 2 27.83388 18.163732 11.061671
1521 5 27.373595 18.70753 11.780663
1522 2 12.453941 12.588169 5.40813
1523 2 13.449632 11.914939 4.327734
1524 5 13.274452 12.04831 5.315687
1525 2 33.446559 56.208086 9.973261
1526 2 34.884651 56.294639 10.705583
1527 5 34.103184 56.835886 10.357892
1528 2 5.254959 32.37555 11.1176
1529 2 5.547299 33.157789 12.501267
1530 5 5.97387 32.658284 11.731163
1531 2 30.911635 42.198394 1.007909
1532 2 31.535107 43.460051 1.802514
1533 5 31.533358 42.450376 1.731231
1534 2 18.115933 5.060409 15.901205
1535 2 18.743568 4.882545 17.37983
1536 5 18.742939 5.460824 16.549095
1537 2 35.415658 16.968604 14.982468
1538 2 35.886249 16.794729 16.518765
1539 5 36.048849 17.305185 15.659973
1540 2 18.561428 31.832753 11.744502
1541 2 18.761473 30.732129 12.910908
1542 5 18.284706 31.588868 12.659476
1543 2 3.77449 38.157009 9.534879
1544 2 5.160054 38.586615 10.247302
1545 5 4.492702 38.833283 9.527355
1546 2 14.546136 41.227235 1.902393
1547 2 13.452914 40.929867 3.054926
1548 5 14.421535 40.809033 2.78716
1549 2 16.756084 12.46711 9.937367
1550 2 16.368805 11.403401 11.090811
1551 5 16.014801 11.926403 10.299813
1552 2 7.561681 46.932915 9.052466
1553 2 9.040496 46.403977 8.67138
1554 5 8.316174 47.069117 8.431644
1555 2 8.613177 42.142547 14.480312
1556 2 7.320638 41.835282 15.400544
1557 5 7.980944 41.433711 14.746891
1558 2 21.807274 42.337693 5.633776
1559 2 23.407025 42.354022 5.862743
1560 5 22.667068 42.556856 5.202554
1561 2 20.636194 45.880621 15.867704
1562 2 20.725213 46.208173 14.287615
1563 5 20.703442 45.465698 14.975209
1564 2 5.569738 18.421522 9.982328
1565 2 6.671565 19.143569 9.0461
1566 5 6.200272 19.179126 9.941168
1567 2 2.328344 8.311493 14.956799
1568 2 1.591054 9.13706 13.779201
1569 5 2.428502 9.078658 14.344707
1570 2 6.90775 55.817118 7.33022
1571 2 5.579277 56.633119 6.904547
1572 5 6.581667 56.568183 6.779946
1573 2 2.411898 28.528562 15.251284
1574 2 2.193525 27.065431 14.600547
1575 5 2.571419 27.565713 15.39518
1576 2 8.136128 45.145562 1.388189
1577 2 6.723908 44.368404 1.27176
1578 5 7.295899 44.9531 1.867985
1579 2 12.117548 21.537754 1.455383
1580 2 11.835801 21.739447 3.033937
1581 5 12.288345 22.136775 2.220388
1582 2 12.957872 40.171392 5.395799
1583 2 12.488478 40.41164 6.923492
1584 5 12.229449 39.99614 6.037608
1585 2 17.533253 15.390874 13.264654
1586 2 18.636088 14.872001 14.325984
1587 5 18.430755 15.577088 13.629408
1588 2 33.884232 23.092284 11.564338
1589 2 34.897738 24.3487 11.486096
1590 5 34.382001 23.743918 12.112819
1591 2 11.545603 49.673353 1.344838
1592 2 12.491918 48.405844 1.676203
1593 5 11.540022 48.74964 1.691182
1594 2 23.935845 46.739942 2.545612
1595 2 23.779086 47.387171 1.073058
1596 5 23.795346 46.519671 1.594312
1597 2 12.789068 48.22632 9.25609
1598 2 13.597354 46.866749 8.924224
1599 5 12.755737 47.39372 8.727984
1600 2 15.289585 46.014741 0.989187
1601 2 16.400878 45.34493 1.952659
1602 5 15.900719 45.245454 1.078317
1603 2 1.473902 2.982841 11.759553
1604 2 1.019189 3.301036 13.277408
1605 5 0.999997 3.639037 12.323513
1606 2 10.337077 13.502068 16.627076
1607 2 11.020598 12.736764 15.378474
1608 5 11.143074 13.007459 16.346075
1609 2 20.275863 54.013227 13.681035
1610 2 19.291126 54.721192 14.749199
1611 5 20.099037 54.859933 14.155433
1612 2 1.337942 36.337239 6.183409
1613 2 0.997604 36.323596 4.603574
1614 5 1.004607 36.89355 5.440013
1615 2 24.776034 37.478984 16.164511
1616 2 24.440199 37.628912 14.590779
1617 5 24.041132 37.465476 15.506508
1618 2 4.964932 51.992086 3.185506
1619 2 3.81213 51.100012 3.883466
1620 5 4.715919 51.069027 3.428787
1621 2 36.900458 34.550445 7.961388
1622 2 36.900256 34.916485 9.535525
1623 5 36.328342 34.597556 8.763693
1624 2 32.600672 45.561881 17.249994
1625 2 33.731506 45.443021 16.101523
1626 5 32.896378 45.01673 16.482791
1627 2 36.888541 23.479558 9.753682
1628 2 35.79321 24.22303 8.826647
1629 5 35.933612 23.486032 9.506094
1630 2 1.478596 48.168863 2.58192
1631 2 2.445473 46.928125 2.952883
1632 5 1.80028 47.292386 2.263269
1633 2 33.257232 56.74853 12.729985
1634 2 31.982371 56.127732 11.954591
1635 5 32.282888 56.841389 12.606443
1636 2 21.893095 15.216145 14.655555
1637 2 21.354856 14.648686 16.069834
1638 5 21.094423 14.86481 15.115899
1639 2 31.316193 36.351625 11.781256
1640 2 32.171065 36.958729 13.011099
1641 5 32.073008 36.168014 12.386854
1642 2 19.919212 4.943142 1.465466
1643 2 20.305429 6.494365 1.703037
1644 5 20.113112 5.791406 1.000619
1645 2 6.100276 12.203962 7.409868
1646 2 5.559727 10.681641 7.362524
1647 5 6.317163 11.277797 7.67142
1648 2 22.507665 14.864363 9.130757
1649 2 24.083109 14.506265 9.090287
1650 5 23.203241 14.302201 9.547144
1651 2 33.925933 4.993883 17.36403
1652 2 34.347317 4.988187 18.924254
1653 5 34.662974 5.200682 17.986313
1654 2 15.31518 21.242334 1.055251
1655 2 14.424084 21.625385 2.347968
1656 5 14.54675 20.952511 1.60183
1657 2 15.90733 47.855061 10.280781
1658 2 16.24645 47.230089 8.829471
1659 5 16.055279 47.00745 9.798188
1660 2 23.449719 1.643406 12.100462
1661 2 24.996234 1.647231 12.569688
1662 5 24.061079 1.348681 12.816428
1663 2 20.167587 35.353068 5.560198
1664 2 19.870651 36.932262 5.733027
1665 5 19.964971 36.052906 6.225332
1666 2 36.357429 3.491297 7.38287
1667 2 36.759789 4.227499 6.001563
1668 5 36.516469 3.339121 6.421215
1669 2 28.92244 17.726097 14.599993
1670 2 28.71683 18.119076 16.15408
1671 5 28.268307 18.081201 15.247482
1672 2 36.896939 22.428441 1.881863
1673 2 36.895578 20.84108 2.185473
1674 5 36.481813 21.572355 1.62106
1675 2 33.458361 2.318963 2.794483
1676 2 33.091556 1.925721 1.270439
1677 5 32.711781 2.240032 2.154468
1678 2 30.677681 51.563637 4.466982
1679 2 29.645547 50.981706 3.367914
1680 5 29.755185 51.237469 4.3411
1681 2 24.429585 10.821015 1.915077
1682 2 23.861342 12.026302 1.000594
1683 5 24.680975 11.666358 1.473003
1684 2 4.959024 30.776812 12.59929
1685 2 5.729799 29.981037 13.775956
1686 5 5.595996 30.044179 12.774638
1687 2 12.869966 36.925825 9.372203
1688 2 11.973375 35.930233 10.275981
1689 5 12.666268 35.975168 9.539498
1690 2 29.726916 54.725853 12.79579
1691 2 29.744061 54.663171 14.410619
1692 5 30.267594 54.445923 13.572022
1693 2 27.339149 11.663964 11.284313
1694 2 27.720369 10.788964 9.980111
1695 5 27.843156 10.871845 10.981401
1696 2 16.27938 3.187872 4.743431
1697 2 16.343962 3.724882 3.220492
1698 5 16.849423 3.665779 4.095445
1699 2 34.821323 45.177244 12.58988
1700 2 35.479709 45.356721 14.054876
1701 5 35.495213 45.687619 13.098427
1702 2 4.542675 8.678666 10.672243
1703 2 5.729737 8.793682 11.762908
1704 5 5.282249 9.254211 10.980479
1705 2 12.639843 20.089953 17.802899
1706 2 12.784699 20.015193 16.195004
1707 5 13.1927 19.721628 17.073572
1708 2 26.941655 47.404001 2.48133
1709 2 28.288726 46.682462 1.95533
1710 5 27.413677 46.538565 2.443295
1711 2 18.36152 26.600143 2.624395
1712 2 18.300713 27.281422 1.160136
1713 5 18.873674 27.148488 1.98389
1714 2 25.642368 9.950048 13.040059
1715 2 27.197742 9.524464 13.147696
1716 5 26.562616 10.305532 13.042465
1717 2 6.627712 3.477189 9.037818
1718 2 7.470829 4.434781 8.045817
1719 5 6.539415 4.160855 8.332102
1720 2 30.357373 18.1882 11.446861
1721 2 30.033131 17.291542 12.751762
1722 5 29.78569 17.458583 11.784603
1723 2 9.81188 44.303451 15.123433
1724 2 10.461597 44.290985 16.603166
1725 5 10.560578 44.652308 15.66286
1726 2 27.707147 0.995426 4.442886
1727 2 27.372817 1.029414 2.862075
1728 5 26.968913 1.041492 3.790107
1729 2 26.227543 9.945062 1.002675
1730 2 27.625329 10.751549 1.090246
1731 5 27.161581 9.879966 1.313424
1732 2 32.525174 49.630947 13.68907
1733 2 32.486464 50.009551 12.118384
1734 5 33.080364 49.697564 12.876324
1735 2 30.565762 34.46481 1.002032
1736 2 30.005322 35.643165 1.955595
1737 5 29.772737 34.767187 1.504935
1738 2 16.135834 54.346969 11.583118
1739 2 16.555892 54.593983 13.124037
1740 5 16.454803 55.032116 12.217204
1741 2 8.651931 21.311763 3.324335
1742 2 8.987294 21.288945 4.905128
1743 5 9.361805 21.488534 3.986198
1744 2 3.059883 27.549142 10.243641
1745 2 3.63167 27.559632 11.755211
1746 5 3.889561 27.577858 10.776596
1747 2 30.999854 44.010371 15.989294
1748 2 30.240228 43.443037 14.680479
1749 5 30.322373 43.360575 15.685954
1750 2 17.556048 53.687174 1.006003
1751 2 18.605676 54.153685 2.142904
1752 5 17.962599 54.478668 1.432013
1753 2 28.054784 31.996785 11.647809
1754 2 29.149788 32.900093 10.87522
1755 5 28.164963 32.800776 11.086837
1756 2 36.896139 17.262796 6.300068
1757 2 36.867411 16.305206 4.998495
1758 5 36.385407 16.545306 5.855555
1759 2 25.792324 33.091677 7.549665
1760 2 25.545589 34.327684 8.561249
1761 5 26.251448 33.745473 8.128445
1762 2 13.377326 35.97969 1.775147
1763 2 13.463768 36.558354 3.281657
1764 5 13.990895 36.379173 2.436341
1765 2 15.661071 13.100415 8.138377
1766 2 16.078938 11.577903 7.793067
1767 5 15.316982 12.177459 8.083724
1768 2 23.310551 55.375478 2.156275
1769 2 23.090133 56.912034 2.606058
1770 5 22.67657 56.130137 2.113991
1771 2 12.450899 48.786754 6.133739
1772 2 11.412448 47.857121 5.315632
1773 5 11.493915 48.654214 5.934126
1774 2 11.341371 35.608849 12.36427
1775 2 9.769952 35.421604 12.692108
1776 5 10.629313 35.859265 12.999483
1777 2 17.269349 21.340581 7.214218
1778 2 18.215105 21.491848 5.912466
1779 5 17.906366 21.944265 6.763656
1780 2 13.721864 21.497458 7.425382
1781 2 13.956349 21.965485 5.896375
1782 5 14.320868 21.394345 6.648341
1783 2 32.493585 4.018233 12.381269
1784 2 33.463307 3.397393 11.247209
1785 5 32.903293 3.179615 12.061754
1786 2 30.482177 10.756869 7.683468
1787 2 30.123897 10.953403 6.119848
1788 5 30.812944 10.594089 6.768412
1789 2 10.908607 34.647703 4.138934
1790 2 11.48649 34.762639 5.643838
1791 5 11.480865 35.194058 4.728211
1792 2 22.678486 48.962257 8.932646
1793 2 23.74183 50.120879 8.560097
1794 5 23.606813 49.262326 9.078928
1795 2 10.33043 13.989449 5.664102
1796 2 9.70593 15.038982 6.72258
1797 5 9.896255 14.87181 5.742602
1798 2 10.844007 47.274743 7.647768
1799 2 10.304385 48.77398 7.917938
1800 5 10.102489 47.896427 7.455698
1801 2 8.557242 23.429667 4.636749
1802 2 8.08363 23.607796 3.101868
1803 5 7.762993 23.492477 4.05498
1804 2 16.017549 8.551062 9.285356
1805 2 17.58912 8.226033 9.094521
1806 5 16.683347 7.823218 9.299074
1807 2 10.309307 56.833841 13.980487
1808 2 10.081159 56.345324 15.504034
1809 5 10.410625 56.064145 14.589201
1810 2 1.30008 25.473553 6.69853
1811 2 1.838081 26.995064 6.612193
1812 5 1.942384 26.110262 7.092582
1813 2 9.320455 32.438408 13.987037
1814 2 8.984197 31.945044 15.488841
1815 5 9.283831 31.643562 14.570225
1816 2 1.001097 42.173437 13.978153
1817 2 1.336283 42.014654 15.551154
1818 5 1.737568 42.04842 14.622522
1819 2 13.935259 41.135403 13.806
1820 2 13.635989 42.672574 14.205295
1821 5 13.288079 41.723767 14.262308
1822 2 15.07369 46.364451 3.372965
1823 2 14.77009 47.749997 2.59838
1824 5 15.499179 47.109578 2.886163
1825 2 15.775463 39.053526 10.009651
1826 2 14.897058 38.037391 9.11089
1827 5 15.345174 38.944808 9.128593
1828 2 27.571031 23.692418 7.823685
1829 2 28.586705 24.67433 7.038732
1830 5 27.98093 24.589498 7.845185
1831 2 5.039216 40.575747 0.997926
1832 2 5.306321 41.337454 2.398052
1833 5 5.739813 40.9998 1.547992
1834 2 25.754401 15.639116 5.919801
1835 2 24.818844 15.016296 7.081147
1836 5 24.833282 15.352776 6.126631
1837 2 13.966067 32.00164 18.231945
1838 2 13.695847 32.456129 16.704752
1839 5 13.483956 32.656941 17.673929
1840 2 24.646152 41.21818 7.492403
1841 2 25.232779 42.26295 8.57694
1842 5 24.87479 41.325269 8.446074
1843 2 3.367182 14.856661 4.869884
1844 2 3.204393 15.182859 3.295403
1845 5 3.751528 14.675734 3.979505
1846 2 9.973824 28.959023 2.135715
1847 2 10.320736 30.42896 2.710896
1848 5 10.414912 29.435217 2.878623
1849 2 33.248748 2.120141 6.739413
1850 2 33.665171 2.114368 8.300968
1851 5 33.995064 1.94242 7.359622
1852 2 31.52209 33.294263 2.598827
1853 2 31.590657 34.067333 4.016416
1854 5 31.292975 34.1402 3.051738
1855 2 32.407478 52.091966 12.821612
1856 2 33.431999 51.922258 11.583286
1857 5 32.520595 52.266886 11.85733
1858 2 1.698672 52.06261 3.072978
1859 2 3.024551 52.861215 2.608038
1860 5 2.161126 52.93206 3.131493
1861 2 4.807129 52.115042 15.175623
1862 2 4.029876 52.274125 13.767622
1863 5 4.128347 52.651536 14.701641
1864 2 13.308417 15.146164 5.251211
1865 2 12.842906 14.274842 3.972151
1866 5 13.541726 14.362589 4.699116
1867 2 9.68553 34.428795 14.848145
1868 2 9.371009 34.666033 16.415528
1869 5 9.768053 34.022031 15.743111
1870 2 9.32999 26.936127 15.423013
1871 2 7.947488 27.670028 15.825471
1872 5 8.943594 27.63535 16.001818
1873 2 13.773023 28.181679 4.764293
1874 2 14.162203 27.8042 3.241814
1875 5 14.303863 27.558719 4.213513
1876 2 6.934372 31.81598 14.600885
1877 2 7.487219 31.329644 13.162228
1878 5 7.087471 32.107973 13.671083
1879 2 26.206065 8.222917 11.433332
1880 2 26.082926 9.352675 10.284255
1881 5 26.627414 9.04142 11.078723
1882 2 2.910048 32.937913 10.103931
1883 2 1.949716 34.173123 9.699071
1884 5 2.847386 33.922394 10.09385
1885 2 4.869716 3.982971 4.300605
1886 2 6.275041 4.651055 3.864006
1887 5 5.350282 4.393432 3.543104
1888 2 2.85985 49.632034 10.458412
1889 2 4.236531 49.099381 9.800442
1890 5 3.359294 48.815866 10.218295
1891 2 28.754418 8.922104 10.530528
1892 2 28.845491 8.658277 8.938674
1893 5 28.304976 8.475073 9.774621
1894 2 36.544967 19.811837 14.646356
1895 2 35.472883 20.973479 14.310026
1896 5 35.622445 20.113642 14.822703
1897 2 18.417733 29.114286 9.258087
1898 2 17.086617 28.199047 9.306704
1899 5 18.010298 28.289109 8.902687
1900 2 26.951112 32.095442 1.527323
1901 2 28.557948 31.924173 1.552665
1902 5 27.696245 31.684748 2.02666
1903 2 28.312622 3.679201 13.53953
1904 2 28.139479 3.574153 11.936133
1905 5 28.730659 3.923192 12.679911
1906 2 16.698639 30.55859 7.007882
1907 2 16.648778 30.230862 8.589654
1908 5 17.227668 30.20102 7.759881
1909 2 31.879654 40.952885 14.591842
1910 2 31.455402 41.869888 13.330489
1911 5 31.139365 41.481613 14.210199
1912 2 21.544573 52.487452 6.696113
1913 2 20.066242 52.631924 7.332948
1914 5 20.827634 53.135183 6.895297
1915 2 3.419582 40.911681 16.168678
1916 2 4.647944 40.505284 17.137112
1917 5 3.806602 40.16708 16.687347
1918 2 21.431802 19.433494 16.580112
1919 2 21.892117 20.390881 15.362156
1920 5 22.208019 19.90036 16.189272
1921 2 23.632459 39.527274 16.752725
1922 2 23.780139 41.136371 16.722824
1923 5 23.862076 40.312118 17.304564
1924 2 28.927875 4.780598 10.277394
1925 2 29.120771 4.400836 8.718399
1926 5 28.473518 4.384522 9.496425
1927 2 23.752083 6.479905 3.785361
1928 2 24.930319 6.252098 2.702883
1929 5 24.405269 5.819763 3.452507
1930 2 8.71524 47.948679 13.228052
1931 2 10.00421 46.99756 13.013986
1932 5 9.002997 47.007347 13.162327
1933 2 19.202861 25.379612 7.41025
1934 2 18.979481 25.23226 5.816423
1935 5 18.727446 25.76747 6.637736
1936 2 15.410003 26.97105 7.708853
1937 2 13.818048 26.733593 7.563293
1938 5 14.581628 27.35925 7.339628
1939 2 28.824014 39.011496 6.760795
1940 2 29.76483 38.760853 5.470857
1941 5 29.026742 38.367828 6.041195
1942 2 7.85184 41.289123 1.007981
1943 2 9.154039 41.273867 1.965028
1944 5 8.715863 40.838919 1.162938
1945 2 5.977224 26.782908 5.212209
1946 2 5.326163 27.488418 3.912104
1947 5 5.555834 26.599943 4.339177
1948 2 22.969938 24.114683 15.626101
1949 2 21.621239 23.422913 15.065423
1950 5 22.342264 23.36804 15.773687
1951 2 19.364445 45.630231 3.501736
1952 2 18.708588 47.106927 3.468325
1953 5 18.534996 46.124252 3.298786
1954 2 12.514091 25.946604 5.692292
1955 2 12.175397 26.050288 4.11545
1956 5 11.807146 25.79122 5.021983
1957 2 21.692902 40.798183 12.540325
1958 2 22.460573 39.605114 11.766269
1959 5 21.752529 39.816919 12.45789
1960 2 6.043618 17.49768 3.138098
1961 2 4.724725 16.956342 3.899262
1962 5 5.655169 16.709448 3.58646
1963 2 30.549681 17.272089 8.677606
1964 2 30.310532 17.052629 7.0944
1965 5 30.0251 17.588434 7.90432
1966 2 4.084668 43.036402 6.89352
1967 2 4.225715 42.910304 5.288496
1968 5 4.204484 42.391021 6.15707
1969 2 24.25583 11.785465 13.4622
1970 2 25.179005 12.417899 14.628248
1971 5 25.187684 11.996144 13.708154
1972 2 16.706133 54.172117 3.253238
1973 2 16.341262 54.246459 4.825891
1974 5 15.956439 54.154489 3.894237
1975 2 34.623384 11.411787 7.981579
1976 2 35.503775 10.670928 9.116452
1977 5 35.373903 10.7865 8.119304
1978 2 25.261621 30.701635 11.242707
1979 2 24.004426 30.628478 12.255626
1980 5 24.329192 30.997297 11.370738
1981 2 10.601477 51.519642 11.966903
1982 2 9.067318 51.111971 12.270313
1983 5 9.841927 50.987334 11.630802
1984 2 36.201398 38.756834 9.744662
1985 2 36.886008 39.931977 8.871597
1986 5 36.648577 39.633809 9.80928
1987 2 31.893473 27.261235 13.412168
1988 2 32.484967 27.49863 14.897319
1989 5 32.041812 27.947165 14.105513
1990 2 7.181914 16.117833 1.117721
1991 2 8.303555 15.522841 2.117622
1992 5 7.353016 15.413822 1.787291
1993 2 7.16 21.672938 13.037538
1994 2 6.24185 21.426161 11.730634
1995 5 6.226192 21.603303 12.727079
1996 2 15.080202 15.310162 1.975632
1997 2 16.137066 14.112518 1.729496
1998 5 16.042909 15.102509 1.918122
1999 2 2.719335 12.562176 3.709016
2000 2 1.462287 12.72233 4.71205
2001 5 1.953024 13.141875 3.932508
2002 2 18.584137 20.099906 10.110031
2003 2 17.776901 19.337919 8.93545
2004 5 18.163585 20.226834 9.22671
2005 2 32.769767 29.163788 4.850472
2006 2 32.399101 27.77234 5.584212
2007 5 33.131077 28.455098 5.433948
2008 2 3.270982 33.913267 12.428991
2009 2 3.529348 35.310262 11.658571
2010 5 3.93006 34.635521 12.297853
2011 2 28.483399 20.156415 14.418856
2012 2 29.449411 19.651706 13.225548
2013 5 28.503335 19.630072 13.584713
2014 2 2.231813 32.013458 1.027735
2015 2 1.326695 33.293129 1.421562
2016 5 2.198037 32.998979 0.998755
2017 2 11.310517 41.236963 3.448638
2018 2 10.620856 40.951936 4.882173
2019 5 10.964397 40.521421 4.03296
2020 2 35.642326 22.771862 6.689278
2021 2 36.902016 22.693879 7.698731
2022 5 36.505709 23.193593 6.912758
2023 2 6.879435 7.002699 11.165574
2024 2 6.317137 6.880416 12.675793
2025 5 6.854674 6.413452 11.9564
2026 2 16.836572 51.741515 1.734478
2027 2 15.628557 52.792261 1.514185
2028 5 15.854258 51.832248 1.742135
2029 2 35.070845 25.799104 2.431606
2030 2 34.473428 24.501806 3.187917
2031 5 35.298998 25.073173 3.05946
2032 2 33.916711 42.921927 12.254317
2033 2 33.375889 42.776455 10.738321
2034 5 33.234612 43.250082 11.621636
2035 2 14.64437 21.372711 17.150666
2036 2 14.70839 21.230751 15.54205
2037 5 15.231912 21.116451 16.400763
2038 2 5.949929 26.060951 12.900891
2039 2 5.479367 25.53374 11.447441
2040 5 5.23325 26.13113 12.226594
2041 2 21.161763 12.710039 4.072191
2042 2 21.986884 12.734033 5.461613
2043 5 21.860029 13.197148 4.570569
2044 2 4.395654 37.83801 1.269456
2045 2 5.842016 38.531664 1.072543
2046 5 5.328109 37.662729 0.999207
2047 2 8.043317 44.83973 13.646644
2048 2 7.331587 43.99786 14.828419
2049 5 7.449169 44.072859 13.825883
2050 2 8.702266 31.211276 1.405883
2051 2 7.99409 30.670862 2.75434
2052 5 8.309036 30.411086 1.828136
2053 2 32.22354 44.901615 3.333611
2054 2 31.81 44.613301 4.869109
2055 5 31.536091 44.482291 3.903533
2056 2 8.03356 17.309895 10.319999
2057 2 7.989455 17.927052 11.813005
2058 5 7.426102 17.649559 11.01918
2059 2 28.958387 40.827971 14.290101
2060 2 29.9795 39.774478 14.967874
2061 5 29.346562 40.542827 15.151057
2062 2 33.604432 35.073996 6.782977
2063 2 32.785167 33.699676 7.010898
2064 5 33.525498 34.138964 6.478484
2065 2 36.610303 12.603133 8.036658
2066 2 36.001511 14.042333 7.624382
2067 5 35.924687 13.271091 8.27539
2068 2 26.721964 20.388208 1.267848
2069 2 28.023478 21.307314 1.538406
2070 5 27.654659 20.543308 0.986324
2071 2 19.713945 52.722263 11.631156
2072 2 19.230269 52.715326 10.08911
2073 5 19.038344 53.086141 11.011167
2074 2 31.196281 21.437343 7.672388
2075 2 31.65911 22.049943 9.094502
2076 5 30.996209 21.435882 8.638411
2077 2 31.482861 48.484417 10.898151
2078 2 31.410662 48.123899 12.471908
2079 5 31.893841 47.930779 11.603709
2080 2 25.147969 26.268047 0.994769
2081 2 25.961817 24.873113 1.055648
2082 5 25.996863 25.858193 1.285682
2083 2 1.71335 5.719532 12.357077
2084 2 1.000134 7.165377 12.469997
2085 5 1.13768 6.358779 11.874172
2086 2 34.223232 19.228836 8.250543
2087 2 34.73957 18.047716 7.275737
2088 5 34.984544 18.935341 7.696019
2089 2 36.224996 6.345234 1.366417
2090 2 35.816628 6.725567 2.883149
2091 5 35.472771 6.359055 2.004538
2092 2 18.219263 28.656066 11.399143
2093 2 18.143957 28.093091 12.912181
2094 5 17.930739 27.886316 11.944551
2095 2 12.83714 31.657631 9.584694
2096 2 11.465812 31.767255 8.736555
2097 5 11.855013 31.698306 9.668379
2098 2 14.246636 41.928269 5.720476
2099 2 15.231393 40.860011 5.012681
2100 5 14.548323 41.587913 4.845048
2101 2 6.643165 17.728396 6.250039
2102 2 7.428956 18.930281 6.991592
2103 5 6.68097 18.709476 6.346387
2104 2 18.215241 2.522229 13.992774
2105 2 18.305657 1.269301 12.975968
2106 5 18.742883 2.139343 13.252353
2107 2 21.796203 50.909393 1.268114
2108 2 21.11067 52.280303 1.780507
2109 5 21.838312 51.892199 1.193617
2110 2 12.671724 33.197368 7.580892
2111 2 11.235323 32.957532 6.880087
2112 5 12.209487 32.682712 6.877544
2113 2 22.946603 4.469402 4.828731
2114 2 22.849004 3.110666 3.95913
2115 5 23.159757 4.073933 3.950438
2116 2 32.526878 20.384152 17.301367
2117 2 32.377696 18.811853 17.644177
2118 5 32.978283 19.621547 17.734839
2119 2 21.63806 18.599126 8.483858
2120 2 21.77439 16.993777 8.610992
2121 5 22.244192 17.839603 8.313684
2122 2 26.878598 2.386245 14.582071
2123 2 27.834453 2.533129 15.87693
2124 5 27.176158 1.927522 15.403205
2125 2 19.007785 31.736936 1.479391
2126 2 18.270621 30.318615 1.717824
2127 5 18.536176 31.192716 2.153662
2128 2 31.95237 20.419814 2.842489
2129 2 31.537984 18.869045 3.030354
2130 5 31.983131 19.533625 2.410109
2131 2 17.715418 10.606209 12.635476
2132 2 18.070088 10.25875 14.173454
2133 5 18.228513 9.990289 13.210461
2134 2 3.230499 32.955185 7.927821
2135 2 4.387524 33.115614 6.810928
2136 5 3.998237 33.512314 7.656867
2137 2 6.93197 27.963035 8.091354
2138 2 6.486473 26.575938 7.391789
2139 5 6.534037 27.580112 7.273888
2140 2 30.373198 14.978895 3.054732
2141 2 30.461009 13.651311 3.972178
2142 5 30.641409 14.646901 3.944155
2143 2 36.899989 43.069119 4.994017
2144 2 35.832188 41.864489 4.850626
2145 5 36.81766 42.095359 4.858948
2146 2 11.885777 12.762433 10.60932
2147 2 12.335922 12.156285 12.038253
2148 5 11.85192 11.953345 11.172756
2149 2 26.229567 53.338594 4.239991
2150 2 26.282744 52.51119 2.852738
2151 5 26.330979 53.435052 3.263445
2152 2 5.383329 16.234013 14.563045
2153 2 6.969999 15.986554 14.381004
2154 5 6.264643 16.674521 14.612742
2155 2 24.044493 36.158057 7.856069
2156 2 24.625634 35.987715 6.357685
2157 5 24.154438 35.513274 7.117558
2158 2 27.304229 3.608581 7.803855
2159 2 26.493986 3.475804 9.195894
2160 5 26.726811 3.006121 8.330032
2161 2 25.918421 25.346736 16.723893
2162 2 25.391829 26.868754 16.858281
2163 5 25.931008 26.140574 17.309466
2164 2 33.551826 17.578595 10.647855
2165 2 32.004096 17.206509 10.368608
2166 5 32.698033 17.357449 11.089854
2167 2 9.486666 48.914268 4.947918
2168 2 8.74424 50.067809 5.802343
2169 5 8.933416 49.727155 4.868162
2170 2 19.072462 9.555012 8.159424
2171 2 19.098657 8.079595 7.500368
2172 5 19.626484 8.933429 7.630345
2173 2 2.402989 43.92277 15.794361
2174 2 3.072164 43.611765 17.232198
2175 5 3.199969 43.538593 16.23078
2176 2 23.770558 9.337169 3.459201
2177 2 23.971803 8.289446 2.245251
2178 5 23.399252 8.521379 3.047074
2179 2 6.200649 3.113984 6.081872
2180 2 7.295098 4.282152 5.859475
2181 5 7.159362 3.32876 6.171158
2182 2 10.99791 48.832889 10.367127
2183 2 11.463077 49.506863 11.760423
2184 5 11.03929 48.688351 11.342128
2185 2 8.384526 8.646358 1.000628
2186 2 8.191118 7.780147 2.351245
2187 5 8.839842 8.351388 1.824588
2188 2 3.926257 30.805226 4.86125
2189 2 3.706984 29.265159 4.423062
2190 5 3.35565 30.013734 5.00678
2191 2 28.703173 14.006673 5.247054
2192 2 28.324706 14.340593 3.711751
2193 5 28.216238 14.643041 4.671588
2194 2 29.419008 26.98614 9.518335
2195 2 28.416899 26.700763 8.282927
2196 5 28.50603 27.153192 9.183977
2197 2 18.924206 3.303601 3.466852
2198 2 18.683094 2.860714 5.002304
2199 5 18.820626 2.521181 4.058731
2200 2 19.440254 55.017139 11.912638
2201 2 18.451349 55.720508 12.979987
2202 5 18.633859 54.870465 12.461678
2203 2 3.432576 3.970313 11.590551
2204 2 4.249841 3.39283 10.321502
2205 5 4.218412 3.432671 11.332418
2206 2 21.943024 16.365512 17.633402
2207 2 23.376183 17.092767 17.803848
2208 5 22.761516 16.626653 17.148523
2209 2 34.642437 20.423844 1.27003
2210 2 33.096526 20.812124 1.003022
2211 5 34.04182 21.172044 1.040492
2212 2 13.534187 40.168086 8.846394
2213 2 13.566504 41.702562 8.340196
2214 5 13.629699 41.101226 9.15194
2215 2 20.634194 47.373114 4.49987
2216 2 20.905208 47.093686 6.068426
2217 5 21.344924 47.208908 5.164047
2218 2 22.73962 53.027986 4.936191
2219 2 22.682852 53.72902 3.481123
2220 5 23.114482 53.763462 4.396019
2221 2 29.814061 48.744368 14.981822
2222 2 29.260933 49.028194 16.473595
2223 5 29.473276 48.305799 15.797146
2224 2 9.031969 4.390406 16.319179
2225 2 9.271565 5.970246 16.561248
2226 5 9.290944 5.057474 16.998284
2227 2 19.541804 22.465836 1.263347
2228 2 21.016361 23.075246 1.006063
2229 5 20.048685 23.308924 1.189162
2230 2 28.494994 11.273724 13.450963
2231 2 28.251309 10.469449 14.831418
2232 5 28.785686 11.207921 14.391388
2233 2 25.288435 43.709399 10.229895
2234 2 24.435619 44.879139 10.948442
2235 5 25.196219 44.688463 10.308397
2236 2 1.86055 52.557224 7.357949
2237 2 1.443543 52.00166 8.817178
2238 5 1.597179 51.74402 7.85046
2239 2 1.005076 49.913402 6.788625
2240 2 2.321539 49.439045 7.597209
2241 5 1.318419 49.328827 7.518913
2242 2 30.69084 11.170762 12.853723
2243 2 30.991306 10.137525 14.059557
2244 5 30.44733 10.287393 13.219226
2245 2 14.219336 20.145311 3.960393
2246 2 14.916351 19.219528 5.086888
2247 5 14.315797 20.01986 4.934143
2248 2 18.329838 1.125247 9.193929
2249 2 18.502403 0.998673 10.795833
2250 5 18.869082 1.435437 9.959585
2251 2 17.324604 39.257693 1.452592
2252 2 18.867358 39.425401 1.001283
2253 5 18.07767 39.894442 1.426631
2254 2 13.643969 33.912813 15.05732
2255 2 12.784716 35.039191 15.835042
2256 5 13.505791 34.885985 15.141424
2257 2 34.121943 27.308859 10.86654
2258 2 35.597647 26.806345 11.292769
2259 5 35.046825 27.612653 11.02633
2260 2 4.553304 5.044251 7.520285
2261 2 3.855895 4.763085 6.089739
2262 5 3.682588 4.998642 7.058761
2263 2 12.677593 18.644941 4.421575
2264 2 13.620809 17.415914 4.881719
2265 5 12.832182 17.992938 5.145609
2266 2 18.179379 18.052547 10.87485
2267 2 19.042486 17.117915 11.871546
2268 5 18.191877 17.658725 11.779271
2269 2 34.250355 29.864261 11.772286
2270 2 32.902276 28.99325 11.582765
2271 5 33.743262 29.1001 12.135805
2272 2 21.9625 15.289075 5.24319
2273 2 20.650406 15.224323 6.184524
2274 5 21.049541 15.645692 5.355268
2275 2 20.330207 56.315449 15.992087
2276 2 21.111645 56.545213 17.387959
2277 5 20.305102 56.818038 16.840618
2278 2 4.815098 27.931504 13.573026
2279 2 5.306428 28.258562 15.077528
2280 5 5.569716 27.828235 14.200017
2281 2 26.708039 16.067168 3.758468
2282 2 26.462766 17.664184 3.794195
2283 5 26.72882 16.858883 4.346674
2284 2 11.309543 34.8308 8.142107
2285 2 11.197335 36.197345 7.286619
2286 5 10.962453 35.753949 8.165685
2287 2 16.201454 21.091412 3.948861
2288 2 16.093412 21.778914 5.407478
2289 5 15.870759 21.888904 4.426226
2290 2 3.945978 33.554703 2.459681
2291 2 3.272987 32.477454 3.458938
2292 5 3.704001 32.602753 2.551714
2293 2 17.998592 46.099074 6.223358
2294 2 18.06459 46.658573 7.738119
2295 5 18.421672 45.955981 7.102994
2296 2 2.064401 47.261776 7.442819
2297 2 3.428942 46.482583 7.064957
2298 5 3.005366 47.394897 7.178067
2299 2 35.659379 50.388132 13.362417
2300 2 35.493976 51.342037 12.068352
2301 5 36.124543 51.058132 12.807481
2302 2 35.498137 29.546663 15.014567
2303 2 35.255081 30.255552 16.446453
2304 5 35.497341 29.386283 15.987968
2305 2 5.181425 35.39047 10.208048
2306 2 6.220729 36.185871 11.156246
2307 5 5.303484 36.218962 10.72952
2308 2 6.287158 39.071591 14.10894
2309 2 5.786382 40.566448 14.464639
2310 5 6.46988 40.027583 13.947936
2311 2 20.800526 30.221988 18.225545
2312 2 19.89284 30.974821 17.120446
2313 5 20.136116 30.073512 17.511581
2314 2 21.068088 9.35002 16.461583
2315 2 21.684378 9.062262 14.995542
2316 5 21.369538 8.632001 15.855936
2317 2 12.61452 30.036973 11.054351
2318 2 13.245957 30.422193 12.491288
2319 5 13.453437 30.285518 11.510065
2320 2 13.217302 7.871104 16.070868
2321 2 13.939029 8.009443 14.631469
2322 5 13.539267 7.356279 15.293357
2323 2 20.305787 46.475813 8.115076
2324 2 19.70795 47.945978 8.420205
2325 5 20.003066 47.073231 8.839426
2326 2 10.450691 3.457211 9.365918
2327 2 10.912292 3.889132 7.87855
2328 5 11.031443 3.200615 8.610858
2329 2 13.845361 12.304012 9.712385
2330 2 14.260223 10.74629 9.597113
2331 5 13.516037 11.38425 9.849548
2332 2 26.845895 49.490212 3.763111
2333 2 27.513465 50.694347 2.916763
2334 5 27.505893 49.69212 3.058223
2335 2 21.060183 4.145634 12.700126
2336 2 22.579296 3.610503 12.56661
2337 5 21.606021 3.37127 12.425079
2338 2 8.630269 49.176891 11.320381
2339 2 7.196883 48.807236 10.671802
2340 5 7.713147 49.512894 11.181748
2341 2 17.686618 6.16329 12.252906
2342 2 18.883725 6.171577 13.338613
2343 5 18.5508 6.583546 12.476077
2344 2 19.847723 23.95881 13.75042
2345 2 20.709079 23.703808 12.406941
2346 5 20.327648 23.26688 13.236478
2347 2 20.577393 5.592471 14.616677
2348 2 20.691451 6.492422 15.954202
2349 5 20.245954 6.415155 15.048613
2350 2 23.329367 14.094103 3.202513
2351 2 23.919608 13.949887 4.700082
2352 5 23.884965 13.522137 3.783372
2353 2 20.354009 13.128428 6.881486
2354 2 21.774788 13.645492 7.452387
2355 5 20.787878 13.554858 7.65811
2356 2 35.550828 10.238826 5.420625
2357 2 35.733641 9.163423 6.613094
2358 5 36.138252 9.978078 6.169074
2359 2 24.368233 22.411468 11.994755
2360 2 23.038066 23.097255 11.384634
2361 5 24.040553 23.005866 11.27883
2362 2 15.453438 32.280253 15.384689
2363 2 15.438081 32.211198 13.770102
2364 5 15.494428 32.831766 14.567753
2365 2 31.19807 25.36404 3.420562
2366 2 30.685875 25.1625 1.901044
2367 5 30.488916 25.617696 2.783389
2368 2 2.921642 38.050885 3.471637
2369 2 1.925574 37.57474 2.291371
2370 5 2.346583 37.307347 3.172154
2371 2 12.760887 55.697341 13.915829
2372 2 12.850645 56.839718 12.776174
2373 5 12.247155 56.149758 13.205456
2374 2 13.183633 29.210839 6.616945
2375 2 12.814556 30.505376 7.511289
2376 5 12.443852 29.809744 6.876307
2377 2 28.507608 26.876265 18.155828
2378 2 28.047619 26.279916 16.725907
2379 5 28.370115 26.03792 17.654326
2380 2 14.917599 43.295415 7.629442
2381 2 15.465218 44.193877 8.856134
2382 5 15.562878 43.308424 8.375549
2383 2 4.334032 5.117547 13.563018
2384 2 5.592773 4.71741 12.631698
2385 5 4.77597 5.310998 12.702496
2386 2 12.341435 3.656713 11.347691
2387 2 12.394821 3.950303 12.936039
2388 5 12.759745 4.228824 12.033939
2389 2 17.595346 24.276921 1.000589
2390 2 18.931553 25.185952 0.99021
2391 5 18.29046 24.67019 1.579715
2392 2 7.332721 24.542764 7.338582
2393 2 7.241631 24.800342 5.745707
2394 5 7.430687 24.107316 6.458799
2395 2 23.31513 5.372155 13.658178
2396 2 24.335647 5.93677 12.539407
2397 5 24.151735 5.171229 13.175528
2398 2 15.487489 12.633761 12.687682
2399 2 16.821086 13.493983 12.382014
2400 5 16.085335 13.326358 13.056626
2401 2 8.554248 53.469386 9.812493
2402 2 9.150013 53.174842 11.285655
2403 5 9.111951 53.849474 10.53203
2404 2 17.689093 33.388423 15.907264
2405 2 17.60104 33.399826 14.293568
2406 5 18.211467 33.236531 15.08429
2407 2 4.538444 19.734317 11.438786
2408 2 4.169521 19.310595 12.954125
2409 5 4.85022 19.783858 12.373437
2410 2 5.891047 46.809132 13.422699
2411 2 6.870498 47.28984 12.230436
2412 5 6.815866 46.74938 13.084512
2413 2 19.004382 8.196597 1.203593
2414 2 19.125556 9.794866 0.996834
2415 5 19.64069 8.95044 1.211563
2416 2 19.461074 1.388554 0.997689
2417 2 19.341135 0.998685 2.561502
2418 5 19.164806 1.723295 1.877123
2419 2 4.141247 24.131339 8.131091
2420 2 4.017125 22.544673 7.850059
2421 5 4.506814 23.391604 7.590367
2422 2 10.771924 19.326797 3.402829
2423 2 11.265557 18.547975 2.075554
2424 5 10.456049 18.811841 2.622909
2425 2 14.808084 52.757147 5.344327
2426 2 13.526183 52.44071 4.412397
2427 5 14.02608 53.169219 4.906265
2428 2 10.784602 7.286456 13.761556
2429 2 12.248383 7.741473 13.249501
2430 5 11.735693 7.331111 14.019748
2431 2 32.471655 38.733571 14.379192
2432 2 31.783423 38.492229 15.821408
2433 5 32.220247 38.036352 15.030277
2434 2 30.730627 51.699323 16.478208
2435 2 29.766837 52.106662 15.24651
2436 5 30.246294 51.338204 15.698306
2437 2 23.097884 47.344764 10.360794
2438 2 21.656361 48.022053 10.634996
2439 5 22.409909 47.490744 11.052611
2440 2 15.869624 0.999562 8.136511
2441 2 14.316002 1.427247 8.259962
2442 5 15.221619 1.706212 7.904204
2443 2 12.545343 28.6312 15.365906
2444 2 13.517406 28.968518 14.119629
2445 5 13.164429 28.227782 14.712287
2446 2 10.268114 38.711107 5.070684
2447 2 11.231972 37.489931 5.508408
2448 5 10.326453 37.727736 5.123685
2449 2 22.510704 2.972575 6.379928
2450 2 23.088797 1.557456 5.855387
2451 5 22.816447 2.082778 6.676599
2452 2 33.711173 34.957888 10.877116
2453 2 34.24435 34.984123 9.351688
2454 5 34.516674 35.083189 10.321509
2455 2 5.30505 52.520459 10.880377
2456 2 4.859835 53.91555 10.196709
2457 5 5.466767 53.11055 10.106509
2458 2 13.922287 1.000841 15.899346
2459 2 13.292511 1.801049 14.644378
2460 5 14.149039 1.44135 15.046253
2461 2 22.080889 10.085807 9.148722
2462 2 22.761879 9.464453 7.821292
2463 5 22.230491 9.245259 8.654424
2464 2 26.825064 12.38894 17.290752
2465 2 26.028063 11.344101 16.350009
2466 5 26.032385 11.80293 17.25222
2467 2 11.413222 28.660816 13.453964
2468 2 10.570638 30.03759 13.534214
2469 5 10.630628 29.133405 13.083239
2470 2 33.296016 20.440228 13.743596
2471 2 33.520961 20.502028 15.342807
2472 5 33.285974 21.045979 14.522182
2473 2 33.377794 34.259576 18.821983
2474 2 34.177051 35.65522 18.663046
2475 5 34.240968 34.702868 18.999896
2476 2 21.526469 1.032201 12.973747
2477 2 20.859811 0.999462 14.445614
2478 5 20.66844 1.096057 13.456385
2479 2 1.399077 6.428148 16.639241
2480 2 2.99441 6.43192 16.3808
2481 5 2.23347 5.937132 16.828774
2482 2 11.480653 26.789583 15.9221
2483 2 11.481004 26.107546 17.387269
2484 5 11.35189 25.935222 16.398249
2485 2 8.374127 24.001304 15.111348
2486 2 8.919951 24.533331 16.536451
2487 5 8.481359 24.809384 15.666992
2488 2 11.787076 15.758315 6.716677
2489 2 11.111033 16.69899 5.589737
2490 5 11.569761 16.694009 6.491997
2491 2 26.733353 49.885739 1.00965
2492 2 25.590794 50.913191 1.510446
2493 5 26.457635 50.832823 0.99406
2494 2 9.165761 23.113452 7.375851
2495 2 7.93094 22.08762 7.189358
2496 5 8.863422 22.320888 6.8722
2497 2 33.885539 4.209846 7.67584
2498 2 34.434036 4.939877 6.342385
2499 5 34.309371 4.045807 6.800233
2500 2 26.078016 40.628123 2.731052
2501 2 25.755832 39.217944 3.451807
2502 5 25.354943 39.987274 2.930323
2503 2 23.308558 42.255389 9.684751
2504 2 23.714755 41.0165 10.639766
2505 5 23.970648 41.952023 10.350211
2506 2 33.427408 44.268821 14.236757
2507 2 32.583088 43.02277 14.825295
2508 5 33.446465 43.291589 14.370494
2509 2 17.402366 26.257072 8.32312
2510 2 17.427492 25.75183 9.858045
2511 5 17.58163 25.47477 8.896792
2512 2 25.106907 3.115062 10.865458
2513 2 24.045235 4.313698 11.084591
2514 5 24.797982 3.976792 10.49774
2515 2 27.077874 23.237421 2.010865
2516 2 25.819706 23.323065 3.021594
2517 5 26.356605 22.706631 2.424705
2518 2 35.17717 20.655844 3.896061
2519 2 34.003105 19.745288 3.260169
2520 5 34.226659 20.409264 3.990708
2521 2 14.611625 30.332045 16.954178
2522 2 13.988071 30.643215 15.496012
2523 5 14.107504 29.932149 16.206397
2524 2 6.525264 51.426094 13.964715
2525 2 6.751184 51.694615 12.387137
2526 5 6.448721 52.110929 13.258759
2527 2 21.422442 50.718455 4.023091
2528 2 22.56412 51.548275 3.235775
2529 5 22.187987 50.624483 3.407997
2530 2 29.054787 49.956913 5.983701
2531 2 28.761566 48.990355 4.722083
2532 5 28.391319 49.336995 5.59803
2533 2 13.415332 48.021334 15.908182
2534 2 12.992935 48.421922 14.400532
2535 5 13.270242 47.657192 15.002875
2536 2 18.167246 44.378111 4.863399
2537 2 16.960184 44.280613 3.793169
2538 5 17.322724 44.802644 4.580935
2539 2 6.709151 12.56816 13.450493
2540 2 6.439691 14.153264 13.28699
2541 5 7.100891 13.459095 13.611755
2542 2 17.469881 16.715359 5.877214
2543 2 18.569957 15.952316 4.971955
2544 5 18.175615 16.026452 5.901216
2545 2 20.569805 2.66152 10.619516
2546 2 20.915483 2.009041 9.181923
2547 5 21.014766 1.896885 10.182968
2548 2 20.703406 24.939521 4.473424
2549 2 21.409901 25.402421 3.095569
2550 5 20.655915 25.599302 3.741533
2551 2 26.307142 36.838889 10.586691
2552 2 26.14462 36.01668 11.968522
2553 5 26.035489 35.968522 10.963386
2554 2 27.605271 41.971028 8.00118
2555 2 26.757579 41.479754 6.715893
2556 5 27.553797 42.027057 7.017594
2557 2 31.123737 20.625229 10.682248
2558 2 31.774883 20.556688 12.159815
2559 5 30.96709 20.30769 11.603042
2560 2 5.163451 41.925143 12.850595
2561 2 4.00995 42.867879 12.224034
2562 5 5.000547 42.797522 12.419726
2563 2 28.393588 11.805128 3.345578
2564 2 28.458031 10.902944 4.68491
2565 5 27.981939 11.032995 3.801196
2566 2 19.019209 28.15672 15.743854
2567 2 18.297016 29.039922 16.888532
2568 5 18.329106 28.845129 15.895782
2569 2 17.829236 19.828389 12.28823
2570 2 19.179041 20.502155 12.867852
2571 5 18.759783 19.636171 12.553493
2572 2 36.832115 14.869348 9.484203
2573 2 36.124193 14.201749 10.774572
2574 5 36.901668 14.77021 10.463266
2575 2 9.406698 52.087884 5.094766
2576 2 10.532213 53.210731 4.804374
2577 5 9.561014 52.962187 4.664636
2578 2 9.846876 39.709638 16.65706
2579 2 9.162118 39.619765 15.195922
2580 5 9.333989 40.224037 15.989549
2581 2 3.998981 26.129418 5.915038
2582 2 5.165377 25.122867 6.403166
2583 5 4.452236 25.27944 5.702137
2584 2 16.507669 34.922489 5.243348
2585 2 16.383813 36.077252 4.11948
2586 5 16.625946 35.107923 4.281654
2587 2 0.999889 22.050744 3.760048
2588 2 0.999627 23.566501 3.199353
2589 5 1.573452 22.838432 3.605763
2590 2 11.27441 55.508118 4.286678
2591 2 12.718248 54.927755 4.723036
2592 5 11.976788 55.568354 4.976801
2593 2 14.796654 35.962025 10.081411
2594 2 15.204264 34.597038 10.844667
2595 5 14.524924 35.025125 10.228416
2596 2 33.402421 1.041616 4.702767
2597 2 31.796897 1.00129 4.883221
2598 5 32.591511 1.60342 4.708416
2599 2 1.000301 50.997202 13.974379
2600 2 2.224765 49.947864 14.081489
2601 5 1.862084 50.741239 13.568123
2602 2 21.465479 21.202247 2.065684
2603 2 22.471788 20.485315 1.023932
2604 5 22.251987 20.609929 2.004078
2605 2 22.50917 29.891668 10.82049
2606 2 22.168929 31.390628 11.319742
2607 5 21.810586 30.588233 10.817465
2608 2 21.954052 10.464584 3.972179
2609 2 22.875425 11.589998 3.267613
2610 5 22.675511 11.1163 4.139492
2611 2 11.65853 25.247336 0.999417
2612 2 11.622095 24.366936 2.35421
2613 5 12.043421 25.169887 1.904454
2614 2 29.149352 37.430094 9.733775
2615 2 29.558924 37.202899 8.186995
2616 5 29.460728 36.752365 9.088052
2617 2 2.579858 55.841398 1.281545
2618 2 1.463465 56.823575 1.914703
2619 5 1.633094 56.110861 1.216282
2620 2 11.768818 38.788706 8.832656
2621 2 10.959935 38.820469 7.433873
2622 5 11.380525 38.216688 8.128913
2623 2 10.882646 1.80779 5.805287
2624 2 10.842718 2.130135 4.222127
2625 5 11.404754 2.19204 5.061657
2626 2 28.021646 13.841236 9.206689
2627 2 27.469157 13.785481 10.724432
2628 5 27.201451 13.758839 9.74865
2629 2 4.77518 10.84906 12.408621
2630 2 3.423668 10.15098 11.862732
2631 5 3.804798 10.769463 12.567534
2632 2 4.02633 11.447759 15.54077
2633 2 4.00101 11.248391 17.144362
2634 5 3.77106 10.819188 16.256987
2635 2 23.596514 28.260453 11.954827
2636 2 24.393559 28.771266 10.644986
2637 5 24.487655 28.294748 11.53302
2638 2 31.756408 37.266652 4.045238
2639 2 32.192492 38.816545 4.185095
2640 5 31.925182 37.986264 4.698618
2641 2 5.735275 49.539068 14.969913
2642 2 6.814922 49.230597 13.807542
2643 5 6.041798 48.847459 14.336704
2644 2 8.498853 17.020335 7.19413
2645 2 9.065969 17.889133 5.954992
2646 5 9.325778 17.291425 6.72944
2647 2 12.364893 23.185064 4.98831
2648 2 10.869455 23.793841 4.917952
2649 5 11.658114 23.480091 4.366495
2650 2 35.189848 16.144806 10.336542
2651 2 35.25787 16.66038 11.866722
2652 5 35.597661 16.821746 10.927025
2653 2 30.848377 38.506445 2.472157
2654 2 30.310746 38.184324 0.982497
2655 5 30.499515 37.787113 1.894154
2656 2 22.113422 8.32634 6.056366
2657 2 23.065155 9.567616 5.649756
2658 5 22.515665 8.79796 5.288899
2659 2 18.613788 14.34301 7.46015
2660 2 18.043591 14.486446 8.96554
2661 5 18.06673 13.892367 8.146356
2662 2 5.26216 25.273057 1.688146
2663 2 5.655825 23.851255 1.028296
2664 5 4.996446 24.61866 0.999385
2665 2 5.692519 31.641238 7.793375
2666 2 6.748469 32.516154 8.648586
2667 5 5.777994 32.435208 8.372629
2668 2 10.995756 22.663984 12.366617
2669 2 11.494548 23.072852 10.88475
2670 5 11.745215 23.064356 11.865373
2671 2 30.133018 26.365083 16.036253
2672 2 30.196109 25.877172 14.496819
2673 5 29.876168 25.633921 15.425793
2674 2 16.928119 37.046409 8.312855
2675 2 16.703299 37.04441 9.913276
2676 5 16.688122 36.472326 9.078401
2677 2 19.820606 17.883374 13.781635
2678 2 20.7889 19.171714 13.901976
2679 5 20.459718 18.443579 13.280698
2680 2 20.364895 32.473318 10.665784
2681 2 21.52913 32.867623 9.616509
2682 5 20.528373 32.844297 9.766406
2683 2 14.485684 16.521961 15.10925
2684 2 15.763315 15.563654 14.861858
2685 5 15.307771 16.173651 15.528874
2686 2 10.90018 27.248273 6.423458
2687 2 10.833317 27.759505 4.89177
2688 5 11.356716 27.813846 5.756425
2689 2 11.513627 7.577599 6.379437
2690 2 11.370339 8.559132 5.103523
2691 5 10.930266 7.806316 5.61746
2692 2 9.223013 0.999961 16.493901
2693 2 10.048726 1.995751 17.462662
2694 5 9.78663 1.031214 17.302968
2695 2 20.92604 26.387831 13.880079
2696 2 20.187939 27.249861 12.729425
2697 5 20.532563 27.270294 13.68092
2698 2 22.492307 40.993819 7.875817
2699 2 22.772882 40.325893 6.431155
2700 5 22.550248 40.131946 7.399321
2701 2 10.344038 43.029827 2.548425
2702 2 10.469101 43.820539 3.952359
2703 5 10.61085 43.889339 2.952509
2704 2 17.775955 44.656727 8.757074
2705 2 18.00016 45.878217 9.791285
2706 5 17.313349 45.247519 9.397536
2707 2 22.11094 17.466623 14.357122
2708 2 23.12012 18.025354 15.489055
2709 5 22.789095 17.19229 15.018998
2710 2 16.264395 47.632594 12.597833
2711 2 15.826977 46.263334 11.859126
2712 5 15.757475 46.794809 12.717747
2713 2 30.153995 4.885787 1.021276
2714 2 30.212022 3.270837 0.999649
2715 5 29.656512 4.071767 1.2725
2716 2 7.244447 38.10128 10.806852
2717 2 7.738896 38.649303 12.244589
2718 5 6.979428 38.196022 11.752378
2719 2 2.637959 9.368537 17.480888
2720 2 1.741755 9.969995 16.27799
2721 5 1.755874 9.307735 17.043326
2722 2 13.643559 53.669415 10.025418
2723 2 15.123792 54.181395 9.62707
2724 5 14.243382 54.452355 10.046576
2725 2 32.900871 30.561872 6.543364
2726 2 32.315716 31.895982 5.843621
2727 5 32.741927 31.525361 6.683568
2728 2 18.994365 38.046314 7.415157
2729 2 20.500378 38.617181 7.549061
2730 5 19.591991 38.778669 7.13279
2731 2 36.463038 26.389562 13.561932
2732 2 36.893658 25.263216 12.485919
2733 5 36.1333 25.608084 13.058151
2734 2 36.892954 28.062675 9.255204
2735 2 36.897244 26.453879 9.409001
2736 5 36.311349 27.265846 9.260799
2737 2 20.671485 10.778895 2.212632
2738 2 20.277205 11.766372 0.995534
2739 5 20.66882 11.723435 1.927908
2740 2 27.845853 43.237737 12.013774
2741 2 28.251075 44.744001 11.590859
2742 5 27.753358 43.912115 11.299708
2743 2 24.362556 44.265332 8.316839
2744 2 24.379943 44.137263 6.705879
2745 5 24.39995 44.787946 7.480952
2746 2 14.320342 25.389525 3.865145
2747 2 14.440759 24.314935 2.66404
2748 5 13.797298 24.886252 3.197034
2749 2 14.151387 6.875601 7.537928
2750 2 12.907004 5.844762 7.565805
2751 5 13.168953 6.821491 7.609525
2752 2 25.758058 46.77345 13.92805
2753 2 24.958127 46.134534 12.677533
2754 5 25.858384 46.19333 13.136453
2755 2 17.797092 18.592523 3.56402
2756 2 17.128892 19.665758 2.557258
2757 5 17.932685 19.473705 3.141689
2758 2 23.053111 49.209149 12.806213
2759 2 24.141465 48.093615 13.233957
2760 5 23.175508 48.244351 12.971785
2761 2 14.481842 30.906995 3.176739
2762 2 14.375624 30.40527 4.709347
2763 5 14.794982 30.216302 3.807705
2764 2 23.990439 17.503168 5.697131
2765 2 24.372104 17.195827 7.237186
2766 5 24.727115 17.536059 6.352462
2767 2 11.942018 54.76687 7.767554
2768 2 13.223837 55.131864 6.853434
2769 5 12.700203 54.374239 7.27336
2770 2 31.283693 7.32557 4.580892
2771 2 31.275244 8.582625 3.565196
2772 5 31.855424 7.869691 3.989041
2773 2 33.053781 42.827103 16.964271
2774 2 34.598676 42.35917 17.043212
2775 5 33.983508 43.146835 16.88297
2776 2 19.27949 56.774314 8.472251
2777 2 19.279639 56.822583 6.856836
2778 5 18.700561 56.695994 7.677306
2779 2 1.007184 39.190994 11.393635
2780 2 1.000133 38.836872 12.970481
2781 5 1.004107 39.591045 12.2954
2782 2 2.479396 39.906543 2.246835
2783 2 1.45862 39.788345 0.999461
2784 5 1.919201 40.43344 1.628941
2785 2 19.970164 32.472685 4.947811
2786 2 19.769095 33.049853 3.451701
2787 5 20.252426 33.188303 4.330195
2788 2 25.9859 45.467907 4.222806
2789 2 27.569001 45.684623 4.465127
2790 5 26.717646 45.311429 4.865685
2791 2 36.895364 27.441477 6.656379
2792 2 35.810195 26.4238 7.287756
2793 5 35.931948 27.23199 6.690653
2794 2 25.308407 28.426446 8.673358
2795 2 26.544614 28.039248 9.639672
2796 5 26.292744 28.426425 8.739016
2797 2 19.324156 42.94642 6.066848
2798 2 18.778828 43.091838 7.581235
2799 5 18.636496 42.622616 6.695741
2800 2 23.201688 5.298162 7.191479
2801 2 23.565607 6.288154 5.966989
2802 5 23.845025 5.982921 6.890724
2803 2 4.196522 14.48032 16.981032
2804 2 3.960941 13.282242 18.039808
2805 5 4.506554 13.580636 17.241187
2806 2 26.241191 34.574968 17.784769
2807 2 27.77014 34.292102 18.225447
2808 5 27.178419 34.649042 17.485861
2809 2 1.69575 12.537567 9.40179
2810 2 1.369428 11.721474 10.758036
2811 5 1.466502 11.644805 9.753434
2812 2 15.009363 48.065212 7.217681
2813 2 14.853388 48.910981 8.58598
2814 5 14.365789 48.574164 7.765413
2815 2 6.96001 41.116555 6.92999
2816 2 6.589929 40.593706 5.446224
2817 5 6.223432 41.038317 6.278406
2818 2 2.253678 11.35151 14.147013
2819 2 1.674108 12.816 13.784709
2820 5 2.257009 12.056282 13.456711
2821 2 8.982184 9.486683 7.520112
2822 2 9.639428 9.535678 6.044468
2823 5 9.54879 10.030311 6.922904
2824 2 6.140857 37.607923 3.042987
2825 2 7.526337 36.890176 2.622061
2826 5 7.064323 37.782598 2.743104
2827 2 11.720804 34.228244 14.037349
2828 2 11.640422 33.444562 12.626223
2829 5 11.911733 33.365742 13.598183
2830 2 18.780927 28.854147 4.339412
2831 2 20.036463 28.011125 4.909357
2832 5 19.558426 28.310506 4.068894
2833 2 22.889177 53.487678 8.122563
2834 2 23.097376 53.534979 9.724534
2835 5 22.508926 53.842885 8.960696
2836 2 27.347364 28.569068 0.999967
2837 2 28.423881 29.754257 1.219814
2838 5 27.895987 29.024534 1.681724
2839 2 16.983249 38.441733 6.613685
2840 2 15.857977 39.598481 6.700833
2841 5 16.172714 38.723392 7.100442
2842 2 29.914037 56.822616 16.087201
2843 2 30.910098 55.573165 16.329338
2844 5 29.950121 55.886783 16.397276
2845 2 16.584893 28.30664 3.370511
2846 2 16.77018 28.715891 1.818068
2847 5 17.234385 28.656575 2.715577
2848 2 35.330363 39.963433 5.834333
2849 2 35.567369 39.343037 4.360959
2850 5 35.34117 39.120386 5.322097
2851 2 16.903799 14.864495 3.927688
2852 2 15.834789 15.088881 5.118808
2853 5 15.950797 15.037966 4.114578
2854 2 32.063098 28.483172 7.688798
2855 2 31.082116 28.311246 8.961595
2856 5 31.937179 27.983717 8.530178
2857 2 33.135964 39.90071 5.966474
2858 2 32.592335 40.232373 7.451857
2859 5 32.528623 39.584593 6.676712
2860 2 9.245276 27.211679 13.243163
2861 2 7.819466 26.736886 13.837748
2862 5 8.373147 26.823157 12.994824
2863 2 18.389755 12.094662 15.360012
2864 2 18.118896 12.42737 13.801861
2865 5 17.831646 12.633234 14.750352
2866 2 31.347161 10.660423 4.281489
2867 2 30.101021 10.420464 3.280764
2868 5 30.568755 11.101358 3.865688
2869 2 14.261348 4.256834 15.902552
2870 2 14.131698 5.311743 14.685074
2871 5 14.748942 4.953986 15.403091
2872 2 33.403112 39.958995 2.237002
2873 2 33.705898 40.357769 3.773621
2874 5 33.995674 40.496924 2.813833
2875 2 16.590834 7.791185 1.372516
2876 2 16.914889 7.565083 2.939603
2877 5 17.168476 7.293103 1.998196
2878 2 33.678427 9.159212 8.727882
2879 2 32.886122 10.539124 9.010707
2880 5 33.491206 9.837886 9.418953
2881 2 35.082747 35.809704 12.78369
2882 2 34.178205 36.245329 14.050154
2883 5 34.271428 36.30685 13.044146
2884 2 21.157367 35.302998 14.628628
2885 2 21.081967 35.670358 13.056605
2886 5 21.545071 35.092133 13.746328
2887 2 22.04322 51.514093 8.596254
2888 2 21.358091 52.199118 9.889789
2889 5 21.174978 51.741849 9.005537
2890 2 21.61199 28.074679 16.91445
2891 2 21.826951 28.035621 15.31315
2892 5 21.392992 27.566207 16.097916
2893 2 34.343775 49.05562 5.808038
2894 2 33.092853 48.343011 6.542393
2895 5 33.404641 48.780035 5.684299
2896 2 6.62255 15.801288 8.496479
2897 2 7.674837 14.663554 8.954898
2898 5 7.583631 15.612246 8.614029
2899 2 32.430401 9.565308 12.497487
2900 2 32.301338 8.446916 11.337988
2901 5 32.846733 9.233611 11.6669
2902 2 25.132366 27.883476 2.481078
2903 2 25.703017 27.511936 3.946755
2904 5 25.955614 27.664225 2.978494
2905 2 12.116951 16.328896 3.668748
2906 2 12.993126 16.356071 2.311002
2907 5 12.455804 16.921216 2.956311
2908 2 21.718296 50.145909 11.332199
2909 2 21.11469 50.818162 12.672211
2910 5 21.20115 50.915793 11.668458
2911 2 10.68162 32.077189 1.003733
2912 2 11.398646 33.492596 1.310969
2913 5 11.229429 32.560276 1.66688
2914 2 11.82717 53.369327 2.495046
2915 2 12.314703 52.977052 1.00497
2916 5 11.843933 52.637176 1.834059
2917 2 30.20652 20.885183 15.575126
2918 2 31.104393 21.087426 14.246661
2919 5 30.700552 20.401216 14.871606
2920 2 26.518674 44.584721 6.931102
2921 2 26.554529 44.202759 8.501043
2922 5 26.384052 43.844917 7.569693
2923 2 10.448515 46.703056 10.335033
2924 2 8.934425 47.069872 10.765005
2925 5 9.698969 46.423065 10.91211
2926 2 11.649758 26.419876 13.526007
2927 2 12.373384 25.160956 12.816512
2928 5 12.296228 26.170173 12.823898
2929 2 13.200324 33.870969 4.368159
2930 2 12.972064 32.353976 3.859706
2931 5 12.88555 32.979693 4.650605
2932 2 32.05665 44.985958 12.285743
2933 2 30.927255 43.881873 12.628324
2934 5 31.354829 44.420004 11.885274
2935 2 18.152839 6.359465 10.112703
2936 2 18.392366 6.262219 8.517377
2937 5 18.288219 5.725407 9.369148
2938 2 25.97755 19.272203 13.384007
2939 2 26.416946 19.583425 14.907808
2940 5 26.474868 18.909401 14.154904
2941 2 14.713122 26.144718 15.590014
2942 2 13.351002 25.774409 14.802995
2943 5 13.959426 25.508601 15.566994
2944 2 14.419349 50.598745 5.216619
2945 2 14.46949 48.985377 5.29677
2946 5 13.979128 49.775645 4.897335
2947 2 3.852609 23.117085 2.128744
2948 2 2.355533 23.141632 1.520421
2949 5 3.005179 23.622151 2.130002
2950 2 20.478562 56.882188 11.396667
2951 2 20.94667 56.556431 9.884499
2952 5 20.145391 56.676228 10.491235
2953 2 1.433187 31.506352 4.173479
2954 2 1.137623 32.984476 3.590651
2955 5 0.99975 31.9941 3.43357
2956 2 20.908217 22.667278 17.441506
2957 2 20.293036 24.098589 17.011628
2958 5 21.03756 23.641875 17.523118
2959 2 24.041984 36.865855 10.657928
2960 2 22.730478 35.968837 10.362622
2961 5 23.674188 36.173431 10.059175
2962 2 8.780817 46.438283 15.284867
2963 2 9.830663 47.567227 15.769847
2964 5 9.74033 46.664777 15.320455
2965 2 26.060643 24.828599 8.946508
2966 2 26.260862 26.271446 8.246507
2967 5 25.925501 25.326844 8.105842
2968 2 3.445918 55.535351 14.888322
2969 2 4.016637 56.823656 14.096838
2970 5 3.62318 55.897449 13.987936
2971 2 34.323901 55.120082 3.681527
2972 2 34.751449 53.84947 2.778951
2973 5 33.992458 54.478099 3.009787
2974 2 27.53603 3.815133 5.627188
2975 2 27.43919 3.15891 4.153455
2976 5 26.982298 3.234173 5.053517
2977 2 14.130376 13.584509 0.998288
2978 2 13.94613 13.054534 2.513898
2979 5 13.883482 12.795998 1.537291
2980 2 11.253998 1.001002 14.442021
2981 2 10.860902 2.217711 15.43045
2982 5 11.097721 1.974446 14.476896
2983 2 27.158444 52.403826 17.520453
2984 2 28.096163 53.012806 16.353525
2985 5 27.150916 52.970632 16.713047
2986 2 33.460094 21.275455 8.007767
2987 2 34.626739 21.267834 9.126148
2988 5 34.426497 21.418108 8.14541
2989 2 11.593173 43.009684 5.658049
2990 2 11.484646 43.930552 6.981726
2991 5 12.099805 43.338471 6.438084
2992 2 12.168966 9.613088 6.895676
2993 2 11.531569 10.632687 5.815843
2994 5 12.019715 10.568468 6.700216
2995 2 23.532797 56.823609 18.109199
2996 2 22.944116 55.333477 18.320995
2997 5 23.533716 55.910857 17.73488
2998 2 12.407437 27.406746 1.460598
2999 2 11.985201 27.897038 2.941553
3000 5 11.690829 27.358187 2.136871
3001 2 3.65625 53.460762 16.951995
3002 2 3.812005 55.068441 17.006801
3003 5 4.247063 54.208576 16.697151
3004 2 25.294452 41.136922 18.953114
3005 2 26.394081 41.66748 17.894237
3006 5 26.26424 41.227861 18.796681
3007 2 33.078581 9.377501 5.02306
3008 2 33.443903 8.987375 6.548261
3009 5 33.458235 9.731312 5.862055
3010 2 29.428878 15.465238 14.269083
3011 2 29.259021 15.859701 15.827108
3012 5 29.911901 15.815081 15.054914
3013 2 3.745453 37.598174 14.245857
3014 2 4.35731 37.889638 15.713022
3015 5 3.615889 37.421175 15.207686
3016 2 9.902978 32.271828 5.270174
3017 2 9.575846 32.252207 3.687614
3018 5 9.665123 31.679881 4.517674
3019 2 22.574131 2.440704 1.857045
3020 2 23.897291 3.367318 1.907339
3021 5 22.925364 3.333357 1.626747
3022 2 28.587085 43.929109 7.405088
3023 2 28.755559 44.996348 6.203208
3024 5 29.110918 44.133086 6.594394
3025 2 36.895503 21.889752 15.715598
3026 2 35.877815 21.792705 16.967313
3027 5 36.532774 22.393177 16.482555
3028 2 18.800553 49.806022 7.682581
3029 2 19.112087 51.091806 8.610805
3030 5 18.926054 50.784365 7.66455
3031 2 10.503809 16.295615 8.512579
3032 2 9.513627 15.741693 9.663495
3033 5 9.656458 16.477935 8.983735
3034 2 21.936125 35.090795 8.308242
3035 2 22.047599 34.63054 6.763045
3036 5 21.688838 35.342293 7.386924
3037 2 9.517932 26.827755 1.836544
3038 2 9.992658 26.332726 3.299923
3039 5 9.859195 26.049361 2.337416
3040 2 16.450396 43.535023 10.711596
3041 2 16.760403 43.986124 12.232221
3042 5 16.667002 44.312646 11.278708
3043 2 25.673572 10.41458 3.702226
3044 2 26.125914 11.001563 5.138448
3045 5 25.382171 10.985592 4.452067
3046 2 6.256613 32.994052 3.697216
3047 2 5.285213 33.567481 4.854564
3048 5 5.337388 32.951813 4.052843
3049 2 17.775447 23.731338 14.446181
3050 2 18.30282 24.049772 15.940293
3051 5 17.89463 24.454099 15.10697
3052 2 8.010094 33.061369 2.371856
3053 2 9.009466 33.696499 1.271965
3054 5 8.323734 33.912685 1.9844
3055 2 6.355033 31.314899 1.204942
3056 2 6.040161 32.886779 1.000141
3057 5 6.087543 32.137599 1.679119
3058 2 2.401787 50.871604 17.034736
3059 2 1.0 50.348038 16.42419
3060 5 1.993339 50.162823 16.483346
3061 2 22.1319 11.266652 12.91885
3062 2 21.751164 10.312613 11.671154
3063 5 21.63741 11.237776 12.065692
3064 2 32.107998 13.270933 5.686515
3065 2 32.445051 12.066734 6.710329
3066 5 31.711747 12.507323 6.169336
3067 2 30.604458 55.782787 10.272496
3068 2 29.494939 56.751503 9.607326
3069 5 29.635228 55.893473 10.125623
3070 2 19.972569 8.53964 9.889808
3071 2 19.712202 9.608382 11.073824
3072 5 19.473754 8.687473 10.727996
3073 2 13.420784 1.200775 5.323668
3074 2 14.822336 1.883613 5.749438
3075 5 14.33088 1.004366 5.649828
3076 2 11.007013 51.043796 3.093626
3077 2 11.325418 51.099435 4.677109
3078 5 11.518672 51.530993 3.782158
3079 2 10.165503 29.197489 7.120869
3080 2 9.686617 29.615859 5.635093
3081 5 10.295435 29.863561 6.404841
3082 2 24.050107 25.301819 6.300354
3083 2 24.42113 26.666425 5.517993
3084 5 24.759576 25.975965 6.176207
3085 2 1.024053 6.120916 8.612951
3086 2 2.060201 5.25122 9.497216
3087 5 1.829424 5.553708 8.559255
3088 2 28.550851 51.065415 13.514917
3089 2 28.382511 50.413441 14.984096
3090 5 28.239346 50.261095 13.993732
3091 2 18.414704 1.10184 6.497815
3092 2 16.964078 1.392028 5.847147
3093 5 17.495535 1.391554 6.708588
3094 2 20.29031 12.809416 12.813539
3095 2 20.152385 13.005536 14.411791
3096 5 20.138174 13.482107 13.518927
3097 2 22.693343 23.795075 2.31643
3098 2 22.260442 23.519393 3.848909
3099 5 22.137049 23.217245 2.890781
3100 2 23.371306 10.474158 14.990827
3101 2 24.524669 9.692306 15.809581
3102 5 24.302963 10.154292 14.936687
3103 2 31.187609 42.405521 11.020847
3104 2 29.836773 42.132467 11.864991
3105 5 30.473217 41.744144 11.180396
3106 2 33.303764 6.486965 14.562278
3107 2 33.671532 7.771059 13.652474
3108 5 34.044339 6.939781 14.093517
3109 2 27.679296 34.151217 1.248331
3110 2 26.727809 34.90957 2.312037
3111 5 27.432821 34.191562 2.202717
3112 2 12.97943 48.153632 3.80472
3113 2 13.559337 47.039771 4.82203
3114 5 13.107336 47.183208 3.927799
3115 2 17.108713 56.784363 11.060816
3116 2 16.722723 56.824382 9.491961
3117 5 16.355736 56.707809 10.428048
3118 2 27.523144 44.859172 13.654569
3119 2 26.358821 44.095266 14.47475
3120 5 27.277318 43.994753 14.061485
3121 2 22.340837 22.111386 9.162634
3122 2 23.558148 21.048577 9.184669
3123 5 23.244329 21.949075 9.524005
3124 2 29.323165 13.212662 12.825465
3125 2 29.523427 12.813947 11.27214
3126 5 29.310698 13.572914 11.907154
3127 2 2.779797 46.024593 9.112584
3128 2 2.495652 44.600528 8.40322
3129 5 2.295606 45.171178 9.214926
3130 2 9.74587 31.131275 9.951222
3131 2 10.478122 29.871152 9.252801
3132 5 9.596152 30.356186 9.359571
3133 2 6.841494 39.940069 3.124394
3134 2 8.331031 40.195557 3.697019
3135 5 7.519461 40.638477 3.285069
3136 2 22.34924 13.078045 14.414136
3137 2 23.287917 13.289428 15.712635
3138 5 22.814468 12.600824 15.141497
3139 2 20.419912 9.96808 13.388155
3140 2 20.132563 10.682501 14.809046
3141 5 20.17142 10.825633 13.807781
3142 2 27.56993 50.211931 11.206033
3143 2 27.637903 50.509039 9.618896
3144 5 27.609291 50.935375 10.536473
3145 2 30.979603 23.334116 4.210806
3146 2 30.875739 22.343095 2.938413
3147 5 30.607891 23.249389 3.300926
3148 2 12.531832 29.934907 2.326866
3149 2 11.596302 29.919002 1.009131
3150 5 12.20521 30.491152 1.580447
3151 2 19.363949 33.855652 12.056335
3152 2 19.532967 34.215307 13.622852
3153 5 19.395686 33.462329 12.960503
3154 2 2.360499 46.91878 11.074649
3155 2 2.627952 48.086236 12.159736
3156 5 2.092923 47.249421 11.964767
3157 2 33.457211 15.275135 16.12977
3158 2 33.698343 16.751107 16.742353
3159 5 33.553409 16.226902 15.888696
3160 2 31.008306 10.166016 10.882423
3161 2 29.907281 10.648379 9.802161
3162 5 30.302581 10.834746 10.715141
3163 2 25.059723 18.394686 16.456527
3164 2 26.000746 17.999011 17.709449
3165 5 25.974289 18.476337 16.817267
3166 2 2.478024 47.583599 5.051677
3167 2 4.05073 47.833098 4.77556
3168 5 3.149936 48.283935 4.874772
3169 2 30.671868 5.080585 13.922213
3170 2 30.637681 3.467934 14.022632
3171 5 31.128116 4.301798 14.320409
3172 2 26.663154 15.29047 0.994763
3173 2 28.116003 14.926986 1.60222
3174 5 27.310489 14.555729 1.114528
3175 2 18.450859 38.369128 11.173005
3176 2 17.268324 38.91801 12.128116
3177 5 17.607528 38.113286 11.616367
3178 2 20.648809 11.447711 10.110841
3179 2 21.695699 12.26735 9.192088
3180 5 21.291313 12.196295 10.117264
3181 2 9.466043 16.588033 17.26952
3182 2 9.321571 17.153077 15.762288
3183 5 9.752515 17.312421 16.664189
3184 2 8.193665 25.837295 10.650341
3185 2 9.763329 26.01777 10.31052
3186 5 8.981718 26.404719 10.824215
3187 2 23.712927 40.742738 13.7288
3188 2 24.712264 40.408954 12.503316
3189 5 24.087277 40.005993 13.190005
3190 2 32.385602 25.772988 10.89142
3191 2 31.963852 24.674325 9.783738
3192 5 31.73044 25.063949 10.688304
3193 2 14.940225 49.824991 12.498061
3194 2 14.860657 49.703243 10.888483
3195 5 14.954284 49.181265 11.750632
3196 2 21.302759 43.068892 9.312926
3197 2 20.939095 41.642214 9.979436
3198 5 20.604731 42.373704 9.364903
3199 2 14.369834 32.153892 6.04305
3200 2 14.770454 31.512313 7.471257
3201 5 14.619591 32.378935 6.970524
3202 2 17.184079 4.821369 13.92138
3203 2 16.112421 6.024367 14.048823
3204 5 16.299932 5.130793 13.611911
3205 2 21.586899 54.992967 11.295714
3206 2 21.791588 53.431553 11.659011
3207 5 21.335426 54.077581 11.027274
3208 2 24.090356 18.138378 13.51932
3209 2 23.332777 18.974225 12.362026
3210 5 23.504538 18.915527 13.357807
3211 2 7.982184 29.922661 14.997763
3212 2 8.498849 29.300641 13.598461
3213 5 7.756699 29.277454 14.286359
3214 2 2.444803 35.696409 13.681042
3215 2 1.293059 36.659625 13.083048
3216 5 2.283565 36.451827 13.067384
3217 2 14.437415 10.517751 2.337712
3218 2 15.306924 10.761973 0.997486
3219 5 14.368946 10.659321 1.363802
3220 2 31.186653 22.194015 17.045435
3221 2 31.281517 23.752691 16.628991
3222 5 31.817737 22.911342 16.799657
3223 2 7.152469 21.411017 9.137782
3224 2 5.888951 22.407786 9.285666
3225 5 6.248232 21.491968 9.52383
3226 2 16.481158 5.183189 5.644089
3227 2 14.983023 5.622887 5.226773
3228 5 15.927339 5.954764 5.377279
3229 2 3.67931 14.751634 14.833379
3230 2 2.433854 13.96767 15.501313
3231 5 3.286088 13.856727 14.966601
3232 2 8.157243 55.482396 12.638407
3233 2 9.749519 55.457615 12.362839
3234 5 9.03126 55.301877 13.05881
3235 2 16.418065 44.754935 6.962364
3236 2 15.158985 45.710869 7.298227
3237 5 16.166241 45.62607 7.350873
3238 2 2.249993 51.575253 1.000554
3239 2 3.638012 50.820673 1.341006
3240 5 2.662779 50.685481 1.106122
3241 2 12.290568 43.318343 17.343694
3242 2 11.424385 41.954225 17.372049
3243 5 12.117976 42.500265 17.867326
3244 2 26.457696 50.166866 7.762988
3245 2 25.749144 48.769389 7.366874
3246 5 25.652434 49.776762 7.347534
3247 2 14.738638 10.996385 14.008082
3248 2 13.153373 10.862694 13.723553
3249 5 13.936622 10.465064 14.226483
3250 2 17.245342 36.040982 14.444471
3251 2 18.434794 36.307713 13.383361
3252 5 18.191303 35.841404 14.248113
3253 2 30.149844 26.438883 5.890842
3254 2 30.44748 26.775545 7.443249
3255 5 30.047663 27.132688 6.584691
3256 2 23.938248 31.891399 0.967175
3257 2 23.552402 32.064575 2.526992
3258 5 24.319956 31.981998 1.872339
3259 2 12.183398 39.806028 15.781613
3260 2 12.37484 39.960463 17.378922
3261 5 12.860541 39.898801 16.493022
3262 2 14.875184 29.962618 9.86219
3263 2 14.58792 29.500806 8.340315
3264 5 14.209502 30.000456 9.135095
3265 2 32.611274 33.054224 9.121409
3266 2 31.880792 33.737832 10.39065
3267 5 32.328515 33.919666 9.501264
3268 2 11.226697 7.388168 11.084453
3269 2 10.828701 7.538224 9.525293
3270 5 10.462231 7.424861 10.461977
3271 2 29.353258 7.435606 5.630094
3272 2 30.379128 8.489767 6.299595
3273 5 29.638038 8.380067 5.618949
3274 2 34.317214 35.336641 2.080204
3275 2 35.537283 35.974958 2.9263
3276 5 35.122766 35.110098 2.602694
3277 2 20.581286 40.660415 6.576293
3278 2 19.920599 40.752533 8.048333
3279 5 20.365678 41.283308 7.310288
3280 2 21.264172 56.104418 7.473131
3281 2 22.66136 56.792755 7.904353
3282 5 22.242598 55.978272 7.473327
3283 2 22.114887 8.214501 11.123864
3284 2 22.352889 6.694845 10.627986
3285 5 22.52871 7.354887 11.374953
3286 2 22.310963 7.175567 7.919341
3287 2 20.78468 6.741865 8.226359
3288 5 21.754653 6.554902 8.447097
3289 2 19.042049 8.494782 16.413591
3290 2 18.625256 9.247884 17.781442
3291 5 18.459002 9.199012 16.784197
3292 2 23.738367 35.071029 13.88921
3293 2 23.701746 35.274122 12.286304
3294 5 24.248836 35.427498 13.123977
3295 2 12.582261 9.435285 1.006438
3296 2 12.323485 8.484672 2.287557
3297 5 13.033453 8.871461 1.678569
3298 2 36.895544 17.887898 13.639236
3299 2 35.496235 18.476695 13.085027
3300 5 36.486631 18.389975 12.894966
3301 2 1.289611 17.248978 7.411626
3302 2 2.026285 18.437217 6.600888
3303 5 1.78434 18.095274 7.522336
3304 2 29.774469 33.982625 13.36807
3305 2 30.432842 34.335846 11.935004
3306 5 30.622402 34.218297 12.922312
3307 2 27.502267 23.095491 5.707834
3308 2 29.067491 22.710032 5.82355
3309 5 28.128794 22.335715 5.766436
3310 2 6.383858 24.488807 18.736743
3311 2 5.701141 23.489233 17.665928
3312 5 6.582091 23.830043 18.029661
3313 2 25.806348 40.559485 16.088135
3314 2 25.833156 40.198051 14.513161
3315 5 25.353621 40.031119 15.388779
3316 2 10.819008 38.101475 15.511926
3317 2 11.801879 37.196536 14.60256
3318 5 10.864185 37.569172 14.682563
3319 2 32.673339 7.624939 17.073413
3320 2 34.224758 7.17298 17.046451
3321 5 33.460628 7.529657 16.486618
3322 2 20.945942 4.154918 3.612295
3323 2 20.73653 3.645097 5.131546
3324 5 20.767269 4.460791 4.533027
3325 2 15.705622 50.848447 7.992433
3326 2 16.210281 50.891106 6.457704
3327 5 15.914578 50.283405 7.211219
3328 2 22.383623 15.465931 1.469657
3329 2 21.84134 16.249997 2.774673
3330 5 22.607615 16.175339 2.117576
3331 2 16.487988 32.952616 1.820502
3332 2 17.640212 33.206876 2.92487
3333 5 17.431528 33.217136 1.934479
3334 2 29.200643 46.552229 10.727146
3335 2 30.177343 46.275816 11.984742
3336 5 30.007114 46.880385 11.190988
3337 2 28.453312 6.016879 7.385361
3338 2 28.105887 6.468127 8.897832
3339 5 28.726499 6.623815 8.11353
3340 2 14.111765 35.884991 7.88627
3341 2 14.102394 34.678184 6.811364
3342 5 13.531396 35.216884 7.45034
3343 2 0.999264 15.209487 8.180794
3344 2 1.360847 14.80988 6.657158
3345 5 1.071032 14.448492 7.557121
3346 2 32.93833 19.588172 9.998832
3347 2 33.676368 19.678923 11.43374
3348 5 33.335249 20.216942 10.647164
3349 2 23.203752 26.120702 12.996031
3350 2 22.571128 24.637777 13.108351
3351 5 23.323635 25.238364 13.420692
3352 2 35.574903 21.907857 12.323461
3353 2 35.710499 20.34331 11.941751
3354 5 35.404385 21.249003 11.609272
3355 2 15.353427 15.627784 8.736996
3356 2 16.584798 16.022876 7.767707
3357 5 16.11698 15.256357 8.234743
3358 2 35.743575 50.096321 17.84012
3359 2 34.479631 49.503559 17.025889
3360 5 34.765392 49.973347 17.875693
3361 2 10.276543 15.233012 15.270994
3362 2 9.668046 14.992544 13.793224
3363 5 9.75758 14.599024 14.721477
3364 2 9.341176 44.354464 9.660961
3365 2 9.335523 43.842322 8.128129
3366 5 9.061415 43.611873 9.074852
3367 2 19.083199 44.190309 10.692334
3368 2 19.875929 44.740479 9.395882
3369 5 19.811293 44.790652 10.404759
3370 2 17.069388 26.079012 17.494705
3371 2 16.974865 26.649803 15.98568
3372 5 17.512807 26.671994 16.842798
3373 2 36.337469 29.180984 11.868487
3374 2 36.892771 29.072694 13.382359
3375 5 36.536235 28.544771 12.59578
3376 2 18.369448 38.251589 14.40792
3377 2 19.247516 38.963517 13.252908
3378 5 19.115114 38.878608 14.252802
3379 2 25.511179 20.994631 8.148574
3380 2 26.540867 21.841293 7.2349
3381 5 26.453882 21.052908 7.863715
3382 2 11.342987 43.215416 9.056082
3383 2 11.510287 42.107472 10.220713
3384 5 10.994883 42.930056 9.933934
3385 2 26.822191 29.237991 17.009386
3386 2 26.416475 28.838297 15.496926
3387 5 26.05434 29.068164 16.41374
3388 2 33.897173 25.725414 14.295685
3389 2 35.008219 24.610799 14.663252
3390 5 34.681611 25.546996 14.866697
3391 2 28.209422 40.688992 11.540765
3392 2 26.601732 40.610018 11.39588
3393 5 27.473688 40.659308 10.884225
3394 2 3.854327 54.368345 12.247048
3395 2 4.954356 54.240475 13.424113
3396 5 4.713678 53.946774 12.485848
3397 2 30.559369 24.29452 6.144459
3398 2 31.119569 23.640793 7.512199
3399 5 31.365727 23.918259 6.570421
3400 2 5.65117 7.300711 9.365227
3401 2 6.682968 6.445353 8.462094
3402 5 5.70536 6.651253 8.62462
3403 2 19.551797 35.315182 16.241608
3404 2 21.036313 35.624033 16.800819
3405 5 20.05179 35.825449 16.92195
3406 2 24.269985 39.071545 8.266773
3407 2 24.469354 38.8697 9.857812
3408 5 24.009222 39.427154 9.149256
3409 2 28.72821 29.285207 15.917859
3410 2 29.152 29.606991 14.391834
3411 5 28.543369 29.049631 14.977875
3412 2 34.271361 13.037556 10.562105
3413 2 33.704619 14.549538 10.629985
3414 5 33.44377 13.571613 10.617841
3415 2 32.872617 25.405358 1.97947
3416 2 33.249953 26.748175 1.163163
3417 5 32.554489 26.311843 1.755171
3418 2 19.08027 23.670726 8.787505
3419 2 19.16307 24.072652 10.350673
3420 5 19.698788 23.759848 9.550868
3421 2 12.968428 45.482587 15.141833
3422 2 11.660474 46.087447 14.410194
3423 5 12.464716 45.484018 14.293598
3424 2 34.8769 8.297143 4.10243
3425 2 35.600471 7.294034 5.142677
3426 5 34.836732 7.947614 5.024084
3427 2 31.292907 15.296848 5.940101
3428 2 30.468152 14.212993 6.81012
3429 5 30.385393 15.034018 6.22395
3430 2 21.771146 41.011605 14.726992
3431 2 21.643648 40.518426 16.260751
3432 5 22.087946 40.333982 15.370185
3433 2 30.38436 2.955195 10.148768
3434 2 30.712298 2.884233 11.729691
3435 5 29.981714 2.794429 11.034918
3436 2 11.678672 43.89599 1.031098
3437 2 12.447572 42.807975 1.945926
3438 5 12.177659 43.045543 0.999757
3439 2 14.68678 40.952049 15.864634
3440 2 15.22402 42.192378 16.750552
3441 5 14.699466 41.327121 16.776989
3442 2 11.384911 45.398023 8.82688
3443 2 11.766256 44.9514 10.332535
3444 5 12.13358 45.320674 9.464643
3445 2 14.743663 23.174944 8.415088
3446 2 16.027785 22.267097 8.787565
3447 5 15.500694 22.675967 8.026298
3448 2 30.016862 47.997885 6.231493
3449 2 30.984029 48.969217 5.37534
3450 5 30.920993 48.391624 6.204158
3451 2 15.640809 53.291332 7.297764
3452 2 14.344539 52.784246 8.11901
3453 5 14.712607 53.525461 7.536211
3454 2 7.302012 12.499103 3.656389
3455 2 7.784728 14.041438 3.665458
3456 5 8.057471 13.091429 3.883681
3457 2 13.886899 8.591746 9.829999
3458 2 12.650581 8.603013 8.789189
3459 5 13.658276 8.554287 8.871062
3460 2 25.007948 53.257851 8.659941
3461 2 25.558929 54.308862 7.562813
3462 5 25.358686 54.172807 8.545625
3463 2 4.4673 49.490871 6.159409
3464 2 4.892718 49.345394 7.711747
3465 5 5.194096 49.194929 6.757253
3466 2 34.562832 51.526557 3.042266
3467 2 35.396836 51.40173 1.663589
3468 5 34.468155 51.42626 2.065431
3469 2 26.730969 51.855061 12.404176
3470 2 25.788892 52.916653 13.177098
3471 5 25.826454 51.988684 12.774619
3472 2 17.31445 22.406267 2.580426
3473 2 17.352052 22.071367 0.999817
3474 5 17.580634 21.721739 1.921792
3475 2 8.740904 40.362174 5.874538
3476 2 8.862598 40.002157 7.445358
3477 5 9.379291 40.103975 6.580956
3478 2 15.099834 18.101454 11.698891
3479 2 15.84549 18.224018 10.270301
3480 5 15.860463 18.526372 11.236161
3481 2 9.071825 5.271156 12.937589
3482 2 7.682543 5.439505 13.745951
3483 5 8.242031 4.802641 13.192864
3484 2 35.770748 44.884067 5.509505
3485 2 35.741925 45.092959 3.907185
3486 5 36.163543 45.40812 4.77173
3487 2 26.964646 33.592615 5.758985
3488 2 27.41911 32.796621 4.427913
3489 5 26.708949 32.863087 5.146092
3490 2 16.492997 2.06831 9.952749
3491 2 16.761698 2.126841 11.545316
3492 5 16.08153 1.895021 10.832464
3493 2 14.274685 18.753753 15.183551
3494 2 15.673122 18.94472 15.970825
3495 5 14.740302 18.556388 16.030592
3496 2 23.17443 27.075903 9.007657
3497 2 22.833772 27.313762 7.44584
3498 5 23.581624 27.186037 8.115864
3499 2 1.180638 53.219715 10.628636
3500 2 1.371113 54.640747 11.37448
3501 5 1.625007 54.097725 10.558887
3502 2 3.664713 35.696265 7.590315
3503 2 3.503631 36.689984 6.326009
3504 5 4.060349 36.482994 7.145611
3505 2 25.341072 3.880811 15.810645
3506 2 25.017949 4.875933 17.042399
3507 5 24.790467 4.653251 16.081571
3508 2 36.526418 49.330738 2.745835
3509 2 35.837532 49.235437 4.204687
3510 5 35.773529 49.663385 3.289651
3511 2 36.890505 8.170463 16.649942
3512 2 36.623232 9.3769 17.691562
3513 5 36.636256 9.121628 16.712177
3514 2 23.431397 1.725984 15.787772
3515 2 22.707783 2.192772 14.420152
3516 5 23.319069 2.487738 15.171052
3517 2 31.481613 27.535672 3.233728
3518 2 30.174194 27.783714 4.150801
3519 5 31.0718 28.162325 3.87606
3520 2 27.473871 53.354905 7.082181
3521 2 27.175347 52.52494 8.43641
3522 5 27.50828 53.406438 8.066758
3523 2 25.41834 47.518834 4.775099
3524 2 26.996139 47.723028 5.059267
3525 5 26.070118 48.07984 5.258513
3526 2 23.776615 12.137497 11.030577
3527 2 24.451018 10.671149 10.9475
3528 5 23.734238 11.223928 11.400479
3529 2 20.168417 26.481797 9.050324
3530 2 19.475134 26.247823 10.491334
3531 5 19.496565 26.845311 9.674587
3532 2 30.054323 53.701576 17.081131
3533 2 30.537619 54.00325 18.593518
3534 5 30.813088 53.605837 17.704301
3535 2 8.675013 28.362268 9.373614
3536 2 9.37814 27.467227 8.226265
3537 5 9.511703 27.898769 9.132058
3538 2 19.266829 4.320588 11.238345
3539 2 17.987316 3.862578 12.11297
3540 5 18.887887 4.323217 12.149184
3541 2 23.741016 36.130629 1.93589
3542 2 22.437916 35.928218 1.001622
3543 5 22.920857 35.59355 1.825814
3544 2 36.912485 9.008451 9.418312
3545 2 36.892732 7.664182 8.521402
3546 5 36.702843 8.6584 8.520122
3547 2 21.8582 56.837926 5.487055
3548 2 22.815059 55.928177 4.555029
3549 5 22.774062 56.761211 5.128528
3550 2 1.014153 43.792324 5.109935
3551 2 2.013217 43.542598 6.355489
3552 5 1.832429 43.31533 5.385854
3553 2 9.462467 7.357844 7.24595
3554 2 8.774402 7.087324 8.683058
3555 5 9.278149 6.658549 7.916952
3556 2 29.975271 46.340835 14.173602
3557 2 31.108198 46.972874 15.137396
3558 5 30.837831 46.819606 14.174101
3559 2 8.756557 50.129164 8.946495
3560 2 7.525751 49.302175 8.303766
3561 5 8.36921 49.226177 8.858137
3562 2 34.634205 12.455456 6.048071
3563 2 34.19686 13.769496 5.21505
3564 5 34.973155 13.297142 5.660891
3565 2 3.916586 40.410767 3.830384
3566 2 4.627426 39.30607 2.888977
3567 5 4.620754 39.72007 3.812604
3568 2 31.602017 17.007294 4.197633
3569 2 31.362902 18.027102 5.42837
3570 5 31.906412 17.23567 5.107809
3571 2 34.508947 55.179582 7.982034
3572 2 34.241262 56.754742 7.738904
3573 5 34.803125 56.083244 8.24677
3574 2 22.547114 19.121106 6.551696
3575 2 21.792413 20.44152 7.098348
3576 5 22.68308 20.066989 6.796745
3577 2 13.83808 0.998596 11.933605
3578 2 12.914377 1.613226 10.758489
3579 5 12.907069 1.0769 11.616876
3580 2 23.310976 56.205339 10.682426
3581 2 23.835016 55.561896 9.29561
3582 5 23.011736 55.80309 9.83279
3583 2 27.089692 8.060377 7.749931
3584 2 26.092707 7.347371 8.803278
3585 5 26.382756 8.236081 8.415214
3586 2 30.385746 53.46779 3.408454
3587 2 30.746617 54.990159 3.00341
3588 5 30.613218 54.052253 2.646949
3589 2 7.815505 43.793356 11.673268
3590 2 7.225499 44.071668 10.194643
3591 5 7.618792 44.505955 11.020017
3592 2 36.880283 50.90479 10.418688
3593 2 36.6063 52.487316 10.238569
3594 5 36.261698 51.56124 10.019115
3595 2 33.281229 35.809177 16.223999
3596 2 31.910972 35.81884 17.080854
3597 5 32.807733 35.363693 16.966008
3598 2 11.654249 37.848184 3.155311
3599 2 12.900281 38.606964 3.85069
3600 5 12.042075 38.738235 3.330327
3601 2 10.629704 33.516144 9.768001
3602 2 10.120424 34.796758 10.612133
3603 5 10.618795 33.917605 10.669079
3604 2 19.505306 15.740817 16.543533
3605 2 19.979992 14.813256 17.778927
3606 5 19.176241 15.19637 17.297538
3607 2 20.127 9.000879 5.383787
3608 2 19.560291 7.788045 4.478376
3609 5 20.330717 8.432469 4.603633
3610 2 19.780617 33.575746 6.83733
3611 2 19.654093 34.733581 7.957734
3612 5 20.021336 33.810298 7.764838
3613 2 4.914683 6.222573 4.773354
3614 2 3.553888 7.094429 4.773843
3615 5 4.338268 6.791695 4.210258
3616 2 3.515946 20.185528 7.622464
3617 2 4.30959 20.620206 8.961523
3618 5 4.001724 19.83263 8.405224
3619 2 9.771219 3.206746 13.228897
3620 2 10.831594 2.389646 12.323442
3621 5 10.310078 3.253406 12.40386
3622 2 30.15962 21.487836 1.043168
3623 2 30.256406 19.875314 1.091132
3624 5 30.790424 20.730486 1.001498
3625 2 16.789925 33.064931 6.485877
3626 2 17.848627 32.950134 5.270202
3627 5 17.692933 33.334089 6.193709
3628 2 17.432703 16.3129 16.081955
3629 2 17.383822 14.698104 16.125984
3630 5 17.115983 15.544109 16.612878
3631 2 4.210054 40.196361 5.999602
3632 2 4.591516 39.776962 7.513037
3633 5 3.924188 40.278085 6.940257
3634 2 25.155388 16.185661 16.36186
3635 2 25.361333 15.94825 14.776578
3636 5 24.798135 16.420202 15.472707
3637 2 34.508019 49.502261 0.999862
3638 2 33.855136 49.045818 2.406027
3639 5 33.65018 49.354157 1.463982
3640 2 15.315304 13.939619 10.841009
3641 2 13.845199 14.40613 10.358252
3642 5 14.369676 13.990235 11.117516
3643 2 13.138096 50.688221 6.999061
3644 2 12.58125 52.204225 6.939457
3645 5 12.534926 51.291725 6.503883
3646 2 27.696991 25.876791 10.779536
3647 2 29.227253 25.459172 11.089037
3648 5 28.4291 25.281049 10.492588
3649 2 5.380365 51.533247 7.645392
3650 2 6.655086 50.844304 6.929612
3651 5 6.305425 51.226843 7.799054
3652 2 18.680436 16.617847 8.072406
3653 2 19.987897 17.056491 7.229771
3654 5 19.561938 16.30562 7.75824
3655 2 20.088476 37.06151 9.04846
3656 2 20.63268 36.606494 10.500596
3657 5 20.78965 36.537174 9.503057
3658 2 32.292267 18.484442 15.456219
3659 2 31.275749 17.331518 15.955569
3660 5 31.94832 17.584784 15.242805
3661 2 15.037508 44.776782 14.897289
3662 2 14.661239 44.384924 16.419381
3663 5 14.941089 44.016877 15.518963
3664 2 35.406408 4.712023 10.041216
3665 2 35.640001 5.226581 8.527096
3666 5 36.070368 4.755542 9.312865
3667 2 36.393974 56.661066 13.136586
3668 2 35.042182 56.190853 13.887221
3669 5 35.427186 56.512569 13.008132
3670 2 6.835903 32.244604 5.682361
3671 2 7.97933 33.338361 5.353474
3672 5 7.704531 32.371753 5.232306
3673 2 28.056148 31.413814 15.000919
3674 2 29.277002 32.47069 15.067437
3675 5 28.791038 31.80941 14.474922
3676 2 15.528139 51.704608 11.510131
3677 2 15.40082 51.885342 9.909188
3678 5 15.579701 52.367271 10.781124
3679 2 4.723384 29.765013 1.048699
3680 2 3.972792 30.433092 2.31447
3681 5 3.834946 29.977797 1.421031
3682 2 9.710093 12.618636 10.038019
3683 2 8.323936 12.973593 10.78933
3684 5 8.964354 13.264052 10.061301
3685 2 24.475994 25.02987 2.683529
3686 2 24.774291 24.891022 4.265818
3687 5 24.696376 25.543855 3.49623
3688 2 13.8257 22.561096 10.841224
3689 2 13.620949 24.085793 11.336472
3690 5 13.93117 23.503413 10.568928
3691 2 30.523428 32.369871 9.241172
3692 2 30.206183 33.921279 8.918089
3693 5 30.499765 33.039493 8.517103
3694 2 25.74221 33.174775 15.498423
3695 2 25.297008 32.713162 16.981866
3696 5 25.993849 32.596527 16.257065
3697 2 11.610113 53.657412 11.608663
3698 2 11.457358 54.09844 13.155937
3699 5 10.993423 53.645646 12.378589
3700 2 26.799641 22.260659 17.021985
3701 2 26.5674 23.188785 15.719471
3702 5 27.045894 22.36987 16.072952
3703 2 7.687147 30.559917 8.285781
3704 2 8.000941 29.575305 7.043215
3705 5 7.400487 30.320586 7.372666
3706 2 36.555126 7.719781 13.289029
3707 2 36.903665 7.093208 14.737415
3708 5 36.228077 7.100366 13.98372
3709 2 8.175097 8.253355 13.378031
3710 2 9.264658 7.826053 12.263506
3711 5 8.540493 7.482935 12.881877
3712 2 34.545381 17.70751 1.356194
3713 2 35.593744 16.510668 1.639743
3714 5 35.472093 17.515508 1.634712
3715 2 8.941048 32.660885 8.577143
3716 2 9.623512 31.617597 7.548704
3717 5 9.068177 32.460874 7.619508
3718 2 13.936637 3.803039 3.178433
3719 2 13.666747 3.922876 4.767362
3720 5 13.495006 3.362037 3.942442
3721 2 7.477613 6.403031 6.411001
3722 2 7.481295 6.801757 4.844827
3723 5 7.892306 7.003849 5.747466
3724 2 24.668291 44.999096 15.586451
3725 2 24.224048 44.609071 14.082316
3726 5 23.956479 44.566829 15.057585
3727 2 17.451409 21.859573 13.040853
3728 2 15.871793 22.055205 13.320919
3729 5 16.772406 21.898401 13.755471
3730 2 24.101402 8.74329 12.036792
3731 2 23.276238 8.946429 13.411468
3732 5 24.040065 8.445563 12.975316
3733 2 13.665178 55.754968 2.52015
3734 2 13.94493 54.170366 2.670716
3735 5 14.147676 55.083292 3.057996
3736 2 34.798252 36.542937 7.902986
3737 2 35.32501 36.379503 6.383871
3738 5 35.471845 36.089748 7.34252
3739 2 9.935038 0.999972 10.37142
3740 2 9.373161 1.000335 8.856101
3741 5 9.435484 1.537263 9.711877
3742 2 34.061571 32.5495 2.915997
3743 2 33.89623 32.848521 4.495599
3744 5 33.451731 32.932721 3.590139
3745 2 30.310971 48.898991 3.063575
3746 2 30.589936 47.508811 2.288028
3747 5 30.278466 47.917726 3.159981
3748 2 15.137646 42.385507 12.452761
3749 2 15.849984 40.935648 12.403971
3750 5 16.013168 41.931694 12.480075
3751 2 36.081718 53.190202 13.335842
3752 2 36.590391 54.306679 14.387805
3753 5 36.00947 54.144589 13.574919
3754 2 33.896954 44.220713 6.450991
3755 2 34.613952 45.3863 7.310767
3756 5 33.824151 45.168031 6.716545
3757 2 26.647243 38.936631 9.554272
3758 2 26.63685 40.010629 8.346664
3759 5 27.147802 39.241128 8.760576
3760 2 9.521047 29.936813 16.710341
3761 2 10.418685 29.210701 15.579456
3762 5 10.406382 29.537445 16.537378
3763 2 12.817603 25.892428 9.560072
3764 2 11.859978 25.230653 10.681189
3765 5 11.935548 25.473872 9.701566
3766 2 1.00068 25.673595 3.830964
3767 2 2.419304 26.212777 4.386558
3768 5 1.924969 25.399975 4.040852
3769 2 15.772552 32.943234 4.544266
3770 2 15.138715 33.799423 3.32891
3771 5 15.102731 32.915373 3.820529
3772 2 28.710606 1.004612 11.078295
3773 2 28.547599 1.522894 12.600369
3774 5 28.066669 1.387643 11.720062
3775 2 23.90804 33.258969 6.078194
3776 2 23.48802 32.885124 4.563031
3777 5 23.164368 33.293292 5.430888
3778 2 2.073505 36.793746 9.828463
3779 2 1.674922 36.004284 8.475771
3780 5 2.187528 36.793459 8.84855
3781 2 2.392753 19.300929 11.657129
3782 2 2.87062 19.069743 10.130665
3783 5 2.443464 19.728481 10.769515
3784 2 7.830353 25.953781 3.43769
3785 2 7.472244 25.462025 1.940415
3786 5 7.083544 25.706195 2.842535
3787 2 25.807149 15.989017 12.048889
3788 2 25.674252 15.055007 10.736692
3789 5 25.548345 15.088391 11.740465
3790 2 3.522773 16.470854 7.991054
3791 2 4.986931 17.150431 7.911588
3792 5 4.003943 17.327965 8.075123
3793 2 31.33832 51.399208 8.698362
3794 2 31.724167 52.740682 9.512895
3795 5 31.459668 52.373997 8.607297
3796 2 12.254401 49.868747 16.251178
3797 2 12.92716 51.268844 15.805061
3798 5 12.117295 50.671779 15.694786
3799 2 4.552734 55.53247 5.281062
3800 2 3.340249 55.536912 6.349592
3801 5 4.161796 55.034597 6.037713
3802 2 1.45195 38.696383 6.695374
3803 2 2.842099 38.441416 7.479192
3804 5 2.432553 38.690217 6.587622
3805 2 24.750529 26.620272 14.768447
3806 2 25.102233 27.586166 13.52135
3807 5 25.444301 26.828396 14.098673
3808 2 29.41305 18.939786 9.548051
3809 2 29.144655 20.532768 9.595678
3810 5 29.205268 19.690386 10.153572
3811 2 9.748218 24.934586 12.915892
3812 2 8.589631 23.807938 12.931205
3813 5 9.387016 24.162891 12.41865
3814 2 23.510593 7.194041 14.871865
3815 2 23.615398 7.027822 16.47601
3816 5 23.604205 7.696121 15.715893
3817 2 27.62531 14.602897 7.069043
3818 2 27.449104 15.744448 8.199401
3819 5 26.963104 15.046941 7.650024
3820 2 21.769117 45.721433 1.866965
3821 2 20.706641 44.536154 2.146525
3822 5 21.434083 45.105211 2.560689
3823 2 28.348052 18.129724 6.347104
3824 2 27.01895 17.271753 6.677665
3825 5 28.029538 17.279961 6.733993
3826 2 28.440065 37.03027 1.037141
3827 2 28.105095 37.734547 2.452656
3828 5 27.718105 37.194392 1.689113
3829 2 7.484292 27.66219 1.921189
3830 2 6.954583 28.886954 1.009457
3831 5 6.677711 28.049096 1.505302
3832 2 5.885637 35.344024 6.667277
3833 2 6.692407 33.987458 7.014765
3834 5 6.695324 34.825317 6.446865
3835 2 5.626866 21.591224 5.874142
3836 2 5.807036 20.86162 7.304915
3837 5 5.784098 20.716999 6.303373
3838 2 17.242873 42.36249 4.833552
3839 2 16.475432 42.630751 6.230321
3840 5 16.405005 42.707647 5.223517
3841 2 21.111779 32.006645 2.056842
3842 2 20.987823 31.22417 3.465481
3843 5 21.501962 31.277875 2.595249
3844 2 13.26053 43.267258 4.254534
3845 2 13.660946 44.709638 3.645353
3846 5 13.718613 43.709459 3.500977
3847 2 18.526698 56.819187 1.359618
3848 2 18.783823 56.829921 2.955133
3849 5 18.954725 56.322049 2.096421
3850 2 8.722302 9.203769 10.637055
3851 2 9.713927 10.464645 10.833949
3852 5 9.672469 9.467842 10.663087
3853 2 16.020792 4.095414 10.663133
3854 2 16.023898 5.542455 9.94344
3855 5 16.52879 4.936805 10.578105
3856 2 20.963437 13.85464 1.00284
3857 2 20.88472 14.281327 2.559644
3858 5 20.463476 14.408613 1.648118
3859 2 28.186279 40.093693 2.139262
3860 2 29.339244 40.159375 1.008662
3861 5 29.082442 39.756886 1.901177
3862 2 16.508869 9.930868 2.880016
3863 2 16.001429 9.938715 4.414401
3864 5 15.945379 9.448649 3.530534
3865 2 26.517062 53.433697 10.890477
3866 2 25.679089 54.792248 10.637421
3867 5 26.529862 54.294137 10.408077
3868 2 31.957351 3.869886 8.91672
3869 2 31.835813 4.588428 10.359226
3870 5 32.45384 4.407505 9.578306
3871 2 4.270153 46.718274 14.904422
3872 2 3.70061 46.613118 13.395628
3873 5 3.570948 47.056561 14.296224
3874 2 20.65083 1.895709 7.001096
3875 2 20.940104 1.07589 5.638704
3876 5 20.608313 0.999069 6.591878
3877 2 35.567592 16.217141 8.170638
3878 2 36.145968 17.528248 8.917883
3879 5 36.395801 16.714744 8.369867
3880 2 10.347668 16.492012 2.139963
3881 2 10.049197 15.596756 3.451957
3882 5 10.011683 16.531987 3.06665
3883 2 20.618876 8.022709 18.157562
3884 2 21.908386 7.094681 17.86121
3885 5 20.922945 7.086491 18.092224
3886 2 6.893739 54.914954 10.584508
3887 2 7.069971 53.757689 11.698768
3888 5 6.543199 54.583973 11.445208
3889 2 8.642251 38.026032 6.506337
3890 2 8.085906 38.434046 5.044865
3891 5 7.847338 38.358047 6.025597
3892 2 32.484801 38.636959 11.62876
3893 2 31.564547 39.778233 10.948669
3894 5 32.003408 38.877988 10.802082
3895 2 27.097586 56.429475 15.174054
3896 2 27.190873 54.880872 15.626848
3897 5 27.638066 55.609067 15.084374
3898 2 16.043703 24.055917 4.139124
3899 2 17.267259 24.897116 3.501009
3900 5 17.027557 24.115782 4.098159
3901 2 18.231957 1.000513 15.667512
3902 2 17.485178 1.458673 17.025564
3903 5 17.898857 1.786544 16.16191
3904 2 14.994582 56.743964 4.676043
3905 2 14.470157 56.821 6.202784
3906 5 14.397736 56.311026 5.331459
3907 2 33.980079 31.201628 13.496266
3908 2 34.8478 32.541371 13.243193
3909 5 34.899242 31.539325 13.376551
3910 2 36.896557 43.748069 12.543616
3911 2 35.718776 43.176928 13.491521
3912 5 36.079486 43.19524 12.545963
3913 2 5.184049 12.966734 11.781263
3914 2 4.416505 13.300763 13.163723
3915 5 4.294897 12.990492 12.207967
3916 2 13.747497 44.514908 1.455554
3917 2 14.885559 43.38738 1.668603
3918 5 14.248446 43.798619 0.998158
3919 2 36.604151 30.81884 6.594643
3920 2 36.132534 29.417279 7.246641
3921 5 36.893178 29.893745 6.778742
3922 2 17.163444 9.016637 11.103031
3923 2 16.896574 8.204542 12.474591
3924 5 16.896908 8.138299 11.464571
3925 2 21.959698 4.38826 8.761991
3926 2 21.980062 4.542813 10.370591
3927 5 22.480465 4.75312 9.516252
3928 2 35.505084 11.816771 15.311779
3929 2 36.212508 12.197825 13.909551
3930 5 36.347769 11.743833 14.804047
3931 2 20.314633 5.969562 10.231275
3932 2 20.600072 6.106722 11.81608
3933 5 20.190017 6.561839 11.010319
3934 2 27.901822 36.540011 6.720688
3935 2 26.958347 36.206245 7.989684
3936 5 27.481236 36.935137 7.520822
3937 2 13.465829 43.557079 9.516319
3938 2 13.5191 42.703991 10.887923
3939 5 14.067334 43.047689 10.109567
3940 2 30.60801 28.167179 11.151185
3941 2 30.190646 28.92715 12.515057
3942 5 30.704522 29.014352 11.647385
3943 2 21.683116 20.406088 10.410607
3944 2 21.10488 20.093883 11.887112
3945 5 20.853726 20.235747 10.916894
3946 2 36.146059 31.066219 8.730041
3947 2 36.718098 30.149009 9.931454
3948 5 36.90343 30.493649 8.997965
3949 2 4.038277 23.388428 4.657201
3950 2 4.605151 24.514272 3.645753
3951 5 4.789917 23.608126 4.0572
3952 2 5.259295 43.929577 15.562758
3953 2 5.231159 43.032816 16.906976
3954 5 5.545243 43.907826 16.506681
3955 2 4.584003 47.034268 11.173395
3956 2 5.177426 46.799864 9.688538
3957 5 5.324311 47.277891 10.568562
3958 2 12.660438 40.218469 12.074223
3959 2 14.004643 40.59143 11.258191
3960 5 13.014015 40.402433 11.171798
3961 2 28.412356 7.795332 15.128652
3962 2 29.185297 7.838337 16.547316
3963 5 28.724089 8.400183 15.842942
3964 2 22.842848 48.415692 3.410326
3965 2 23.535265 48.645321 4.852451
3966 5 23.183262 47.947569 4.209206
3967 2 8.958166 45.408101 4.040127
3968 2 9.100593 47.012241 3.904683
3969 5 8.789873 46.170218 3.436732
3970 2 19.981827 31.472593 14.850027
3971 2 20.461479 32.978799 15.18644
3972 5 20.530019 32.222324 14.51743
3973 2 36.711885 19.020161 16.902586
3974 2 35.605403 19.638977 17.904913
3975 5 35.864913 19.525067 16.93321
3976 2 33.732898 54.800554 11.832094
3977 2 33.967334 53.640367 12.932503
3978 5 34.194346 53.943752 11.993914
3979 2 23.497873 33.549169 8.380472
3980 2 22.53746 32.43564 7.709982
3981 5 23.446132 32.597581 8.125456
3982 2 8.884548 25.967707 6.627475
3983 2 9.384395 25.391595 5.202644
3984 5 9.081682 26.222522 5.695038
3985 2 16.645454 31.276223 3.271129
3986 2 16.835345 31.043305 4.859079
3987 5 17.29503 30.995641 3.958555
3988 2 13.877996 5.992533 9.531784
3989 2 12.292522 5.928299 9.838449
3990 5 13.098249 6.53901 9.789835
3991 2 17.809676 54.722553 10.209107
3992 2 19.047363 54.703359 9.170042
3993 5 18.589738 55.239327 9.896571
3994 2 30.634829 13.234969 16.787052
3995 2 30.271781 11.838396 16.059262
3996 5 30.186624 12.366072 16.918817
3997 2 36.509417 20.431062 9.893523
3998 2 36.727097 20.121112 8.322395
3999 5 36.897952 19.78173 9.260561
4000 2 20.658787 29.665689 13.755215
4001 2 22.04335 29.942038 12.968759
4002 5 21.488189 29.236843 13.436758
4003 2 26.192387 11.956509 8.907813
4004 2 25.712856 13.322295 8.189083
4005 5 25.917024 12.341823 8.0424
4006 2 23.442894 54.934513 12.472865
4007 2 24.219437 53.670452 11.83175
4008 5 24.089028 54.216646 12.673886
4009 2 20.06111 23.341673 6.601707
4010 2 21.532787 23.220205 7.258447
4011 5 20.665928 23.74265 7.270022
4012 2 16.368174 32.945892 9.791451
4013 2 14.987374 32.135946 9.569468
4014 5 15.928275 32.271257 9.221725
4015 2 15.893472 27.209564 11.469039
4016 2 16.029691 28.815497 11.349368
4017 5 15.737278 28.05597 11.951151
4018 2 36.895434 54.664023 7.214047
4019 2 36.565856 53.500278 8.285947
4020 5 36.867728 53.685681 7.337778
4021 2 23.787401 30.743623 9.253055
4022 2 22.861773 29.555035 8.667935
4023 5 22.94622 30.5583 8.772118
4024 2 26.288053 56.799185 8.291059
4025 2 25.818049 56.830527 9.837025
4026 5 25.896824 56.250297 9.011401
4027 2 31.385129 38.467484 8.732931
4028 2 30.873715 39.998827 8.806002
4029 5 30.855949 39.1496 8.255524
4030 2 34.102667 9.282688 15.324051
4031 2 34.487412 9.562612 16.868561
4032 5 34.254835 9.998814 15.985292
4033 2 23.559973 18.913725 9.718155
4034 2 24.096137 19.149517 8.211893
4035 5 24.368253 18.894494 9.152873
4036 2 29.825212 35.582805 5.016274
4037 2 29.376888 36.589241 3.833908
4038 5 29.697925 36.535102 4.792309
4039 2 30.289703 47.596399 9.132023
4040 2 31.591241 47.993955 8.260333
4041 5 30.717917 47.482352 8.250628
4042 2 34.782577 13.502002 12.833243
4043 2 34.218336 13.511076 14.347655
4044 5 34.214664 13.006813 13.470026
4045 2 32.343588 56.716528 5.258881
4046 2 31.398511 55.49019 5.722368
4047 5 32.354049 55.820004 5.670422
4048 2 15.748147 26.440283 2.561186
4049 2 15.798252 26.879046 1.006557
4050 5 16.337948 26.49586 1.77234
4051 2 2.911137 22.134697 9.726455
4052 2 2.422581 23.668268 9.580276
4053 5 2.326262 22.821313 10.126093
4054 2 15.422985 2.355523 1.265612
4055 2 16.449439 1.238192 1.822264
4056 5 15.963324 1.573915 1.00037
4057 2 16.168768 21.101803 11.361952
4058 2 16.081494 20.381782 9.917705
4059 5 15.553485 20.646211 10.739783
4060 2 10.050963 24.997116 8.220161
4061 2 10.827582 24.953795 6.803517
4062 5 10.849919 25.326486 7.74433
4063 2 19.846643 18.361888 1.494314
4064 2 18.653595 19.337552 1.007889
4065 5 19.635252 19.294218 1.250786
4066 2 26.02571 5.830645 6.651137
4067 2 25.533155 5.017695 7.958194
4068 5 26.297055 5.546038 7.555903
4069 2 5.616777 12.867869 1.619174
4070 2 5.793364 14.02813 2.730258
4071 5 6.26382 13.507251 2.000954
4072 2 26.620229 50.685913 5.594555
4073 2 27.796451 51.747299 5.275403
4074 5 26.932766 51.346563 4.931914
4075 2 4.84482 55.157428 8.361228
4076 2 3.287775 54.921035 8.724027
4077 5 4.070748 54.571413 8.186213
4078 2 26.922408 1.422141 9.841232
4079 2 25.395449 1.576347 9.334761
4080 5 26.057741 0.951557 9.776953
4081 2 21.402145 49.262181 5.950375
4082 2 20.986557 50.150478 7.234941
4083 5 20.677158 49.42637 6.598963
4084 2 16.51985 23.034944 16.779819
4085 2 17.293673 23.170535 18.19216
4086 5 16.547555 23.548173 17.621875
4087 2 11.546933 14.815103 9.760868
4088 2 10.590231 14.099217 8.672694
4089 5 11.547215 14.206459 8.984477
4090 2 13.573103 14.466704 8.171799
4091 2 13.791667 13.65377 6.792211
4092 5 13.097962 14.013185 7.435734
4093 2 2.080674 45.12935 13.508478
4094 2 1.000599 45.932016 14.403499
4095 5 1.937805 45.549952 14.389338
4096 2 34.36688 4.719097 3.314407
4097 2 33.968681 4.776695 1.749154
4098 5 33.612222 4.630736 2.685189
4099 2 33.07436 7.076993 1.687457
4100 2 33.584862 6.77114 3.190034
4101 5 33.433207 7.499366 2.503583
4102 2 13.475 54.714353 12.089457
4103 2 14.504768 55.893265 11.687409
4104 5 14.271223 55.209482 12.396228
4105 2 3.978783 44.966324 10.619799
4106 2 5.039607 43.902265 10.024545
4107 5 4.06211 44.163495 10.052567
4108 2 11.381687 28.301792 10.501119
4109 2 10.84155 27.410101 11.736042
4110 5 10.613907 28.169052 11.106201
4111 2 22.761189 46.097466 12.747846
4112 2 21.928121 45.125126 11.761718
4113 5 22.059855 45.404015 12.725769
4114 2 30.12566 30.046894 4.497351
4115 2 29.754086 29.672139 2.969809
4116 5 29.402305 30.078929 3.827305
4117 2 33.519811 23.224709 6.326363
4118 2 33.94559 23.545486 7.852047
4119 5 33.518496 23.92819 7.017987
4120 2 13.481768 7.209491 5.469876
4121 2 12.908349 5.98002 4.591532
4122 5 12.855998 6.979482 4.742731
4123 2 15.120694 10.171384 16.061085
4124 2 14.332312 11.248761 16.971914
4125 5 14.22943 10.415632 16.406371
4126 2 26.823526 27.817359 6.241257
4127 2 25.408469 28.584389 6.386767
4128 5 25.936613 27.768868 6.670519
4129 2 23.766708 16.778854 11.823814
4130 2 23.696294 16.316594 10.2768
4131 5 23.900561 17.089834 10.897204
4132 2 3.512746 9.175862 7.256928
4133 2 4.149127 9.621087 8.674211
4134 5 3.567326 9.920356 7.901894
4135 2 17.920379 42.389435 9.543236
4136 2 17.841062 40.868978 10.085281
4137 5 18.443529 41.560926 9.657767
4138 2 24.21562 54.211847 14.883329
4139 2 25.535752 54.847056 14.200938
4140 5 24.922006 54.889728 15.004693
4141 2 6.794673 53.098309 6.751331
4142 2 6.751529 53.458132 8.32631
4143 5 6.282713 53.587041 7.438549
4144 2 19.355361 42.183914 1.79402
4145 2 18.546179 43.051999 2.891083
4146 5 18.463864 42.539484 2.02213
4147 2 29.043827 48.523352 1.007492
4148 2 29.728453 49.976361 1.18623
4149 5 28.905677 49.422683 1.388738
4150 2 33.259756 40.43633 12.960481
4151 2 33.588101 40.521865 11.380364
4152 5 33.029635 40.913445 12.128233
4153 2 6.90336 8.047868 15.476276
4154 2 7.161901 6.45943 15.624325
4155 5 7.054678 7.218703 14.963616
4156 2 28.775789 11.929084 8.423096
4157 2 28.886787 12.697288 7.005549
4158 5 29.302142 12.597084 7.923137
4159 2 34.352697 38.768835 7.878444
4160 2 33.598279 38.979679 9.292054
4161 5 33.558709 38.502896 8.400067
4162 2 21.650239 37.604211 12.172667
4163 2 22.778689 37.061441 13.19438
4164 5 22.51026 37.123258 12.220392
4165 2 30.624369 46.463305 4.779583
4166 2 29.736808 45.829142 3.58712
4167 5 29.717428 46.153447 4.545753
4168 2 29.092772 48.784211 12.07027
4169 2 28.526875 47.468261 12.818556
4170 5 28.922627 48.389356 12.958172
4171 2 24.427248 30.897922 7.136415
4172 2 25.077774 30.640513 5.679552
4173 5 24.917122 31.333782 6.39934
4174 2 31.939343 9.154575 1.548034
4175 2 30.332922 8.993189 1.620577
4176 5 31.122517 9.104392 0.997118
4177 2 33.723855 41.173106 9.284663
4178 2 34.609586 40.95213 7.951042
4179 5 34.620473 40.917059 8.962565
4180 2 33.103047 11.925863 3.622363
4181 2 32.060792 12.711014 2.668876
4182 5 32.318312 12.523666 3.629663
4183 2 7.454209 24.027305 9.643163
4184 2 9.051186 23.96473 9.883254
4185 5 8.286445 23.600855 9.328913
4186 2 12.237694 22.914923 8.632357
4187 2 10.672886 22.609868 8.897331
4188 5 11.324443 23.153227 8.345278
4189 2 19.308761 37.24232 1.763193
4190 2 18.706534 37.40304 3.254296
4191 5 19.217353 37.872098 2.51702
4192 2 23.383097 51.283731 6.732846
4193 2 23.457679 50.963806 5.150449
4194 5 22.879878 50.894891 5.978654
4195 2 26.896425 21.568713 13.452774
4196 2 25.478877 21.526489 14.227805
4197 5 26.146722 22.129335 13.764029
4198 2 24.308424 11.243935 6.350647
4199 2 24.14 12.834348 6.583271
4200 5 24.15068 12.10011 5.886631
4201 2 7.777313 45.398001 16.97603
4202 2 6.252591 45.846254 17.26961
4203 5 6.938261 45.683811 16.542976
4204 2 25.184376 19.132509 11.182038
4205 2 25.601782 20.666267 11.47402
4206 5 24.961566 20.068986 10.966175
4207 2 15.442436 30.020852 13.968274
4208 2 16.967412 29.507226 14.11838
4209 5 16.359355 30.151235 13.628435
4210 2 14.403309 3.298683 9.407841
4211 2 13.029858 4.038945 8.986486
4212 5 13.434001 3.160843 9.286706
4213 2 4.056941 37.433977 12.07437
4214 2 3.40732 38.897668 12.292301
4215 5 3.406563 38.075482 11.701932
4216 2 32.949254 55.677565 15.150959
4217 2 32.453377 54.988857 13.775574
4218 5 32.182458 55.600679 14.53505
4219 2 6.958375 14.657878 11.209687
4220 2 7.437116 15.814638 12.231748
4221 5 6.797029 15.59293 11.479643
4222 2 1.870639 42.307001 9.865245
4223 2 2.606962 41.203966 10.788846
4224 5 2.721072 41.824854 9.997641
4225 2 2.064255 44.300222 11.471249
4226 2 1.724249 42.811815 12.001281
4227 5 1.343455 43.630607 11.544004
4228 2 24.583346 25.875293 10.195229
4229 2 25.633411 26.434119 11.289292
4230 5 24.67977 26.127507 11.144082
4231 2 6.059852 47.194703 1.973205
4232 2 4.624903 47.099624 2.710618
4233 5 5.187201 46.735069 1.952035
4234 2 32.659578 42.521423 7.728498
4235 2 32.172412 43.390939 9.000704
4236 5 32.119678 42.484507 8.553346
4237 2 12.574165 46.69031 11.646905
4238 2 13.898182 47.388262 11.037204
4239 5 12.946706 47.551256 11.341592
4240 2 36.895015 42.699588 7.302036
4241 2 36.882344 41.150171 6.842643
4242 5 36.307309 41.969076 6.99514
4243 2 19.733352 39.749187 10.038555
4244 2 19.793711 40.266414 11.568499
4245 5 20.220909 39.648365 10.890232
4246 2 34.145606 47.445723 11.024516
4247 2 33.712658 47.979047 9.561636
4248 5 33.793416 48.229049 10.539135
4249 2 5.111262 41.753689 10.487553
4250 2 4.609364 40.444511 11.291325
4251 5 5.012496 40.774219 10.423394
4252 2 27.775858 39.085751 4.310698
4253 2 27.824816 40.581949 4.919708
4254 5 27.479156 39.642427 5.069191
4255 2 19.757816 21.107261 7.605808
4256 2 19.894013 21.580676 9.145037
4257 5 20.114855 21.820212 8.186716
4258 2 9.187144 42.905616 18.171939
4259 2 8.632578 43.069825 16.662837
4260 5 8.364165 42.927714 17.628387
4261 2 4.857555 4.918034 17.081801
4262 2 5.301076 5.100168 15.538424
4263 5 5.614698 5.163012 16.498747
4264 2 3.612703 21.242136 1.00377
4265 2 4.99438 20.403772 1.00056
4266 5 4.592671 21.329766 1.075994
4267 2 31.59518 53.307825 14.904094
4268 2 33.092862 53.155108 15.491905
4269 5 32.259476 52.649805 15.218657
4270 2 24.33683 8.636842 9.111238
4271 2 24.447071 7.501187 10.255804
4272 5 23.805413 8.077498 9.726023
4273 2 22.388274 38.194321 10.082967
4274 2 21.826992 39.542931 9.391512
4275 5 21.628357 38.567869 9.576786
4276 2 36.909041 6.112397 10.82787
4277 2 35.749427 6.171695 11.952003
4278 5 36.332815 6.72804 11.339904
4279 2 33.468927 33.705421 15.103538
4280 2 34.836975 34.533788 15.336235
4281 5 34.229466 34.126077 14.636784
4282 2 33.502432 55.530155 1.142541
4283 2 34.895028 56.054433 1.773181
4284 5 34.247844 56.160956 1.00225
4285 2 1.824255 17.613026 12.947052
4286 2 3.395358 17.254674 13.069999
4287 5 2.480811 17.099993 13.475221
4288 2 26.88867 38.469187 15.592184
4289 2 28.402497 38.732575 16.093032
4290 5 27.46818 39.120006 16.054604
4291 2 13.984613 24.154534 6.114505
4292 2 12.965447 24.529939 7.311279
4293 5 13.91735 24.623121 6.98003
4294 2 26.715705 4.403906 1.000281
4295 2 27.6573 3.174173 1.461855
4296 5 26.802037 3.421371 0.980246
4297 2 17.8836 18.935609 14.933598
4298 2 17.646447 17.581832 14.083338
4299 5 17.362634 18.547409 14.19122
4300 2 27.109988 25.569612 14.78801
4301 2 28.185857 26.758457 14.5854
4302 5 27.827985 25.895756 14.195269
4303 2 12.972077 56.592168 8.561814
4304 2 12.806411 56.180738 10.115898
4305 5 13.474818 56.406242 9.390013
4306 2 17.099092 44.019687 15.024377
4307 2 18.245147 42.926635 14.702366
4308 5 17.411841 43.376467 14.344902
4309 2 34.827012 20.831572 6.061106
4310 2 36.410594 20.925566 5.752353
4311 5 35.713963 20.532185 6.37242
4312 2 29.769051 56.803117 12.121953
4313 2 29.368681 56.705313 13.684654
4314 5 30.127783 56.878359 13.037858
4315 2 27.865759 35.029962 4.1877
4316 2 27.186667 36.485766 4.010606
4317 5 27.508735 35.803392 4.685265
4318 2 24.095325 0.999823 2.524941
4319 2 24.311054 1.417279 0.978627
4320 5 24.744051 0.979506 1.781992
4321 2 26.710731 43.064221 2.536091
4322 2 25.817754 42.806897 3.858313
4323 5 26.179352 43.516403 3.233514
4324 2 17.973284 11.616971 6.03759
4325 2 18.443136 11.576005 7.583376
4326 5 18.286608 12.178841 6.785494
4327 2 12.612825 2.215025 7.100356
4328 2 12.823295 3.787744 6.793514
4329 5 13.297472 2.91888 7.005078
4330 2 3.593227 14.265041 10.031642
4331 2 2.016588 14.620083 10.038842
4332 5 2.886882 14.744446 9.537194
4333 2 27.486738 30.490799 5.444848
4334 2 26.584565 29.372844 4.704471
4335 5 27.33727 30.038231 4.581093
4336 2 29.524848 44.897683 1.606839
4337 2 29.019885 43.374723 1.413194
4338 5 28.841117 44.24718 1.894221
4339 2 8.494212 10.83911 1.136613
4340 2 7.798681 12.291483 0.999705
4341 5 7.649702 11.329412 1.276745
4342 2 31.197933 24.875257 12.814453
4343 2 32.553164 24.122983 13.271978
4344 5 31.944993 24.910464 13.457798
4345 2 34.489013 32.091195 9.726444
4346 2 34.547742 32.937503 11.102021
4347 5 34.864458 32.903727 10.141251
4348 2 15.976514 6.592778 16.59021
4349 2 16.627969 5.462039 17.54359
4350 5 16.750115 6.394565 17.169419
4351 2 9.833085 5.802545 5.734798
4352 2 11.287632 5.159408 6.022134
4353 5 10.435566 5.495321 6.453032
4354 2 34.372301 7.716782 11.211308
4355 2 35.087664 7.83126 9.766647
4356 5 34.9489 8.293618 10.656308
4357 2 25.634176 40.835406 4.938583
4358 2 24.067915 40.71031 4.560331
4359 5 24.73873 40.667707 5.317113
4360 2 35.257349 33.194597 7.451274
4361 2 34.835267 32.101075 6.33864
4362 5 34.819087 32.31957 7.326833
4363 2 18.013619 40.35989 16.36904
4364 2 16.992389 41.416214 15.695866
4365 5 17.374288 41.083247 16.572115
4366 2 9.46311 40.059863 12.557232
4367 2 10.85674 40.339926 13.326164
4368 5 10.42587 39.84464 12.555729
4369 2 25.575561 37.872853 6.968559
4370 2 25.403867 38.583326 5.527155
4371 5 25.6592 38.734191 6.494922
4372 2 13.557863 22.923646 13.225081
4373 2 13.120315 21.410424 13.586476
4374 5 13.690872 21.979042 12.97356
4375 2 5.421022 15.317848 5.699694
4376 2 4.479579 14.517708 6.741498
4377 5 5.42521 14.827061 6.555463
4378 2 34.710988 23.620801 16.604449
4379 2 33.663813 23.082441 15.497431
4380 5 33.789909 23.727133 16.267496
4381 2 17.124183 33.876743 11.635879
4382 2 16.761315 35.345901 12.203151
4383 5 16.896927 34.375297 12.456262
4384 2 18.077915 48.523689 11.731106
4385 2 18.187737 48.030487 10.195988
4386 5 17.95747 47.743834 11.139033
4387 2 1.606274 41.870265 7.725221
4388 2 0.999865 40.84777 6.630385
4389 5 1.832409 41.104727 7.145527
4390 2 13.186543 16.558605 10.176692
4391 2 12.836749 16.495691 8.60012
4392 5 12.496526 16.784218 9.508705
4393 2 16.880987 3.803811 8.664112
4394 2 17.156199 3.520522 7.09698
4395 5 16.930937 3.090045 7.984941
4396 2 22.965535 21.443213 4.071781
4397 2 22.924756 22.218597 5.489177
4398 5 23.099854 21.327465 5.042241
4399 2 14.750412 41.973251 58.93892
4400 2 14.734454 41.806986 60.546402
4401 5 14.218363 42.156978 59.749105
4402 2 31.368 12.082188 70.462829
4403 2 32.070048 13.536425 70.39789
4404 5 31.723959 12.763106 69.84406
4405 2 25.166533 51.407101 58.181652
4406 2 25.918936 50.569529 59.341074
4407 5 26.030911 51.003939 58.433728
4408 2 31.756979 50.305238 71.478414
4409 2 31.421956 51.608532 72.373444
4410 5 31.713579 51.290592 71.457804
4411 2 17.583388 54.528054 64.126913
4412 2 18.370038 55.842288 63.61129
4413 5 18.120955 55.298551 64.42789
4414 2 21.632373 16.701042 69.63538
4415 2 22.095966 16.848457 68.094196
4416 5 21.336704 16.570803 68.703259
4417 2 13.235768 16.374152 72.532336
4418 2 12.571572 15.347698 73.58928
4419 5 12.447123 15.804067 72.694425
4420 2 21.659899 16.143182 66.057545
4421 2 21.02629 14.896666 66.867875
4422 5 21.887939 15.310626 66.535122
4423 2 15.79297 31.429989 67.356866
4424 2 14.98227 32.160748 68.548777
4425 5 15.798822 31.604951 68.327734
4426 2 26.950722 27.927567 62.333096
4427 2 28.090916 26.850337 61.943959
4428 5 27.195265 27.236308 61.673103
4429 2 1.868329 14.937553 73.832496
4430 2 1.00016 15.360567 72.536642
4431 5 1.907267 15.041008 72.852184
4432 2 4.9046 11.46348 68.708174
4433 2 5.080896 10.086311 69.53535
4434 5 5.019023 11.093425 69.615476
4435 2 14.925268 16.270691 70.953111
4436 2 16.246027 16.168786 71.878912
4437 5 15.265503 15.926457 71.812747
4438 2 28.960892 36.641116 73.566528
4439 2 30.274788 37.402768 73.013845
4440 5 29.444496 37.500789 73.5844
4441 2 17.666811 19.360895 65.200998
4442 2 17.017567 18.358952 66.290259
4443 5 17.716978 18.444812 65.563636
4444 2 14.280456 50.648468 67.27019
4445 2 13.177481 51.687984 66.709166
4446 5 14.149858 51.578456 66.968036
4447 2 13.66931 56.82379 59.141156
4448 2 13.896116 56.546845 57.565163
4449 5 14.348863 56.576966 58.46995
4450 2 11.760588 34.774408 71.338093
4451 2 11.353432 33.211015 71.381939
4452 5 10.999482 34.151532 71.260803
4453 2 16.761616 39.023174 61.905209
4454 2 16.438268 40.494686 61.320405
4455 5 17.080979 39.713915 61.277424
4456 2 1.772433 26.623516 65.340325
4457 2 1.281171 27.022192 63.853176
4458 5 1.506613 27.384177 64.771146
4459 2 32.588612 5.41688 69.418154
4460 2 31.572835 5.126708 68.195087
4461 5 31.978424 4.741053 69.03847
4462 2 2.799741 26.616175 73.846145
4463 2 4.305482 26.402083 73.299515
4464 5 3.63338 26.11103 73.998152
4465 2 3.834239 32.186901 64.962169
4466 2 3.793123 32.993233 63.562158
4467 5 4.351394 32.382514 64.145152
4468 2 14.998934 11.723488 58.371745
4469 2 14.295016 11.789693 59.825021
4470 5 15.165559 11.917216 59.324602
4471 2 26.053148 33.519289 69.407018
4472 2 25.218045 33.505716 70.790606
4473 5 25.235531 33.171187 69.835456
4474 2 11.037203 20.202354 71.348447
4475 2 10.367391 19.897507 69.909588
4476 5 11.234459 19.895597 70.431811
4477 2 35.023534 14.569305 74.046423
4478 2 35.050762 15.670927 72.864228
4479 5 35.615337 15.026108 73.402737
4480 2 17.545454 25.369428 68.701293
4481 2 18.185412 25.83889 67.293474
4482 5 18.386755 25.409395 68.187634
4483 2 29.359372 56.028847 66.482747
4484 2 29.420371 55.762159 64.889934
4485 5 29.336601 56.47531 65.603325
4486 2 2.209051 55.557409 57.969667
4487 2 1.140314 56.275141 58.946682
4488 5 1.746323 56.410378 58.147313
4489 2 19.545287 45.651034 62.406694
4490 2 20.884533 45.150353 61.653279
4491 5 20.422216 45.222714 62.550806
4492 2 20.195781 38.502383 70.737318
4493 2 19.953217 39.594623 69.571098
4494 5 20.582909 38.879145 69.911841
4495 2 25.002591 39.450575 69.239363
4496 2 24.000934 39.210623 67.993971
4497 5 24.674008 38.768332 68.607058
4498 2 25.402386 26.910833 74.042475
4499 2 24.043417 27.160691 73.20422
4500 5 24.628894 27.51606 73.94951
4501 2 3.06855 54.243869 68.078599
4502 2 2.499623 55.28872 66.984751
4503 5 3.122013 54.503524 67.128362
4504 2 33.413086 56.024239 64.395182
4505 2 33.897952 55.254927 65.731206
4506 5 34.147482 55.488537 64.778479
4507 2 6.678563 15.408118 69.461781
4508 2 7.76014 15.886236 70.563366
4509 5 7.433876 15.099573 70.016338
4510 2 14.329964 19.311275 58.102711
4511 2 13.329644 18.556106 57.082429
4512 5 13.79056 18.494224 57.981459
4513 2 6.137481 13.957569 58.174475
4514 2 6.857189 13.453787 56.817965
4515 5 6.76499 13.288061 57.812229
4516 2 23.549273 24.973572 65.767608
4517 2 24.052916 26.470442 66.110565
4518 5 24.216309 25.659523 65.527263
4519 2 28.158551 44.389008 61.523781
4520 2 26.699552 44.36351 60.829109
4521 5 27.461751 44.961069 61.123222
4522 2 36.65245 25.317272 59.810073
4523 2 35.403651 25.370761 60.834541
4524 5 36.011007 24.756321 60.307179
4525 2 8.297398 6.074572 59.207764
4526 2 7.956701 5.620419 57.694633
4527 5 7.994099 5.313363 58.658399
4528 2 12.646499 6.42706 61.516911
4529 2 12.460246 7.862292 60.797665
4530 5 12.210799 7.307586 61.606742
4531 2 25.035396 26.002551 61.715284
4532 2 25.697625 26.317278 63.155526
4533 5 24.878353 25.950421 62.687833
4534 2 8.797103 15.821619 74.039028
4535 2 10.356565 15.434599 73.865272
4536 5 9.40735 15.125839 73.697384
4537 2 34.303872 15.320683 70.408503
4538 2 33.327197 15.956487 71.528214
4539 5 33.393139 15.272866 70.784682
4540 2 34.853447 47.276727 67.72809
4541 2 34.664345 45.863932 68.489764
4542 5 35.252551 46.38281 67.849994
4543 2 22.951943 48.07726 66.218209
4544 2 21.812337 48.732512 67.158337
4545 5 22.804789 48.554915 67.068751
4546 2 23.706842 34.524311 66.592936
4547 2 23.004234 35.256209 65.334937
4548 5 22.984369 35.147051 66.341027
4549 2 17.956779 27.669406 73.492703
4550 2 18.22467 27.768778 71.902025
4551 5 18.507597 27.308679 72.758055
4552 2 26.07489 2.984416 56.226482
4553 2 26.833253 2.285696 57.470898
4554 5 26.845548 2.417611 56.467417
4555 2 24.611257 27.757071 64.415902
4556 2 24.379004 28.08678 62.850896
4557 5 23.955105 27.69406 63.681924
4558 2 29.003693 2.552144 56.061875
4559 2 28.700931 4.093486 56.441998
4560 5 29.383631 3.462351 56.041854
4561 2 10.478564 53.851462 68.99248
4562 2 8.96684 53.409428 69.354685
4563 5 9.804618 53.850253 69.712915
4564 2 8.98841 43.746811 66.885336
4565 2 9.071918 45.146889 67.688271
4566 5 9.27219 44.688496 66.808331
4567 2 16.130214 21.422688 68.89881
4568 2 16.929076 20.782745 67.648135
4569 5 16.55041 20.593845 68.567622
4570 2 28.875005 31.098758 56.180613
4571 2 29.533355 31.379057 57.629717
4572 5 29.704018 31.385433 56.63204
4573 2 3.16681 50.437986 70.663086
4574 2 3.426707 51.206079 72.061078
4575 5 3.04353 51.298869 71.128827
4576 2 20.013315 30.078783 63.154541
4577 2 21.279757 30.907545 62.587819
4578 5 20.327856 30.62305 62.394233
4579 2 24.035766 33.468125 64.577891
4580 2 24.192945 32.379299 63.393979
4581 5 24.228462 32.517852 64.396012
4582 2 10.994801 28.720567 65.258302
4583 2 10.846862 27.547217 66.359783
4584 5 10.3478 28.106386 65.679493
4585 2 23.3748 26.655806 68.193965
4586 2 21.836527 26.6463 67.698464
4587 5 22.664676 27.218649 67.803884
4588 2 16.614699 13.551694 70.630502
4589 2 15.968315 12.283668 71.396136
4590 5 16.663095 13.017121 71.458223
4591 2 3.439186 48.053586 59.319774
4592 2 3.551448 48.616593 60.830508
4593 5 2.994316 48.629837 59.985549
4594 2 10.839872 24.857079 67.029207
4595 2 11.106085 23.402608 66.376871
4596 5 10.846677 23.89022 67.225086
4597 2 15.043443 9.534904 58.678698
4598 2 14.267589 8.699988 59.8245
4599 5 14.56093 9.624318 59.534512
4600 2 1.824049 30.235736 58.039288
4601 2 3.411143 30.418339 58.283589
4602 5 2.493675 30.561035 58.686599
4603 2 28.023225 9.24699 65.480343
4604 2 27.029804 8.641817 66.602296
4605 5 27.773097 8.417847 65.952772
4606 2 20.187395 46.618242 69.098375
4607 2 19.630813 46.865176 67.601332
4608 5 19.722983 47.271865 68.523632
4609 2 36.536967 37.068595 65.610254
4610 2 36.733491 38.210081 66.737323
4611 5 36.895149 37.236147 66.514058
4612 2 9.065233 15.795025 68.313551
4613 2 9.234847 14.188348 68.272096
4614 5 8.582022 14.951481 68.145706
4615 2 12.255974 41.458675 70.419274
4616 2 12.650745 41.123565 71.950206
4617 5 12.809453 41.759164 71.178614
4618 2 15.266861 6.999594 61.887788
4619 2 16.312159 7.778962 62.842687
4620 5 15.332827 7.663685 62.614329
4621 2 22.754501 26.428596 70.291386
4622 2 23.565117 25.154097 70.866232
4623 5 23.643137 26.000948 70.31734
4624 2 2.112742 6.386585 71.424337
4625 2 3.160911 7.504716 71.937193
4626 5 2.657587 6.666101 72.197801
4627 2 15.666324 15.516823 60.841027
4628 2 16.327786 16.932313 61.254249
4629 5 15.712893 16.189267 61.561361
4630 2 5.710994 34.547832 70.303197
4631 2 6.068933 34.913961 71.836079
4632 5 5.718891 35.283013 70.960979
4633 2 32.256306 32.994699 59.19194
4634 2 31.541033 31.75043 58.448923
4635 5 32.38231 32.31166 58.491361
4636 2 4.658679 43.996212 64.175335
4637 2 4.046615 45.247105 64.99542
4638 5 4.198741 44.246541 65.011411
4639 2 25.334156 3.127595 71.112706
4640 2 25.882369 2.224333 69.88981
4641 5 26.071016 3.036942 70.463052
4642 2 10.583909 30.463093 59.79874
4643 2 11.608562 30.695438 61.026745
4644 5 10.639515 30.537203 60.780904
4645 2 32.965644 20.35923 74.029206
4646 2 34.576491 20.229205 74.041939
4647 5 33.753223 20.213373 73.453291
4648 2 6.020539 40.070329 59.487944
4649 2 6.485225 40.465456 60.984553
4650 5 6.033358 40.80588 60.145235
4651 2 24.162835 28.357499 60.015089
4652 2 23.152678 28.573692 58.772214
4653 5 23.277842 28.715619 59.766557
4654 2 19.329001 24.054611 58.374703
4655 2 19.084293 25.10842 59.575327
4656 5 19.754705 24.474259 59.159497
4657 2 4.431387 42.453174 56.80148
4658 2 4.617981 40.913296 56.34777
4659 5 4.430802 41.524007 57.13296
4660 2 6.376659 8.110699 57.49704
4661 2 6.582666 8.263922 59.092652
4662 5 6.244325 8.725017 58.257521
4663 2 23.65655 11.33997 63.972164
4664 2 24.390364 11.984554 65.259768
4665 5 23.641072 12.108406 64.590627
4666 2 4.123095 9.625562 64.784437
4667 2 3.704515 8.385863 63.835842
4668 5 3.472047 9.33409 64.10296
4669 2 32.787972 30.752339 64.815721
4670 2 33.03252 31.579469 66.18245
4671 5 33.405393 31.378262 65.263206
4672 2 3.605281 4.724779 69.365824
4673 2 4.168185 5.956098 68.483277
4674 5 3.481045 5.684698 69.175165
4675 2 27.175491 19.153942 59.455595
4676 2 28.222022 18.897466 58.251067
4677 5 27.731958 18.463599 59.023158
4678 2 11.570847 23.512248 63.815846
4679 2 11.110965 22.566076 62.588996
4680 5 10.797828 23.037496 63.428184
4681 2 26.282388 22.217855 61.985122
4682 2 25.929642 23.209478 60.758684
4683 5 25.543146 22.697551 61.541677
4684 2 21.04069 5.851885 59.452712
4685 2 21.009038 5.859474 61.06852
4686 5 21.34894 5.364938 60.253396
4687 2 9.078371 56.102124 67.534725
4688 2 10.030845 55.999184 68.836299
4689 5 9.662698 56.626314 68.132236
4690 2 11.690749 12.176535 59.903671
4691 2 11.67145 10.569113 60.070159
4692 5 12.179517 11.414841 60.296301
4693 2 25.90419 30.844332 64.903836
4694 2 25.516702 29.689573 63.841629
4695 5 25.362156 30.655558 64.101467
4696 2 34.752384 35.750072 67.173675
4697 2 35.775238 35.221308 68.307727
4698 5 35.706673 35.594041 67.369166
4699 2 12.432183 19.80501 60.391268
4700 2 11.733581 19.419054 58.985961
4701 5 12.611501 19.650092 59.433627
4702 2 4.723358 13.065235 71.845706
4703 2 4.510427 12.945679 73.443286
4704 5 5.115464 12.69466 72.671634
4705 2 4.327872 31.212317 72.052483
4706 2 3.864857 31.342859 73.59536
4707 5 3.62586 30.949543 72.693856
4708 2 17.18348 7.835372 70.878729
4709 2 17.954958 7.40985 69.523868
4710 5 17.067111 7.384058 70.009243
4711 2 33.076927 8.11446 59.606983
4712 2 33.597448 8.146046 61.136675
4713 5 33.576411 8.656361 60.262796
4714 2 29.679738 29.447534 62.956771
4715 2 29.039124 29.154051 61.502337
4716 5 28.826818 29.382194 62.465356
4717 2 31.087937 41.260213 63.549329
4718 2 31.076427 39.959996 62.589538
4719 5 30.713313 40.353154 63.448666
4720 2 19.799075 7.044884 72.821194
4721 2 20.305681 7.884165 74.10605
4722 5 19.492453 7.610233 73.569255
4723 2 12.927456 45.266666 57.290534
4724 2 13.472674 45.533987 58.788256
4725 5 12.801659 45.829923 58.090626
4726 2 14.8619 4.669029 57.040395
4727 2 15.066137 3.066014 57.063325
4728 5 14.775758 3.867506 57.609052
4729 2 11.970066 21.76093 65.085656
4730 2 12.512357 21.470354 66.580106
4731 5 12.675583 21.999295 65.732695
4732 2 15.188452 17.704808 63.074514
4733 2 15.616169 17.38056 64.598921
4734 5 15.931791 17.770458 63.71978
4735 2 31.878752 14.74617 68.208294
4736 2 30.312029 14.356796 68.133046
4737 5 31.070235 14.605495 68.755781
4738 2 21.300837 13.836212 68.983657
4739 2 22.776206 14.105432 69.585906
4740 5 21.88587 14.533141 69.364785
4741 2 12.201079 49.137247 64.929773
4742 2 12.595932 50.474271 64.112243
4743 5 12.690051 49.991436 64.996856
4744 2 18.906545 12.348622 57.382541
4745 2 20.378198 12.638443 57.984321
4746 5 19.476048 12.222403 58.178133
4747 2 12.37156 25.792608 58.844694
4748 2 13.101838 25.977092 57.414815
4749 5 13.148874 26.206061 58.399644
4750 2 33.483757 45.722278 63.345035
4751 2 32.767029 45.279662 61.965801
4752 5 32.739647 45.937878 62.73426
4753 2 32.267941 18.453085 65.703794
4754 2 32.286935 18.702222 67.300498
4755 5 31.720388 18.762413 66.463881
4756 2 7.976695 12.335273 65.873644
4757 2 6.922841 12.560802 64.669308
4758 5 7.134588 12.789037 65.632428
4759 2 16.157812 32.098046 62.193552
4760 2 16.47794 31.696406 60.661201
4761 5 16.129876 31.35304 61.547474
4762 2 21.408646 13.465424 65.062173
4763 2 21.992086 13.160458 63.586202
4764 5 21.910235 13.862202 64.311036
4765 2 31.266965 36.78648 65.760102
4766 2 29.784046 37.11876 66.310044
4767 5 30.739304 36.924015 66.582227
4768 2 12.93971 3.235044 71.871228
4769 2 13.77156 2.672119 73.137339
4770 5 13.842917 3.17883 72.264023
4771 2 11.735334 31.419314 68.446513
4772 2 11.844311 31.526849 70.055381
4773 5 11.751741 30.886748 69.276775
4774 2 23.257005 39.182097 62.287235
4775 2 23.619487 40.617622 62.935133
4776 5 23.604786 39.619128 63.100428
4777 2 36.865341 12.100227 61.938173
4778 2 35.338554 12.43406 61.526624
4779 5 35.924531 11.942803 62.189817
4780 2 27.943651 1.0 63.808553
4781 2 27.138129 1.450053 62.481721
4782 5 27.680196 1.78282 63.269094
4783 2 6.370325 20.696103 60.105864
4784 2 5.26916 21.78677 59.64785
4785 5 6.243065 21.519939 59.578294
4786 2 13.2478 34.263635 65.298756
4787 2 13.977824 34.774291 63.950353
4788 5 14.06885 34.17292 64.759423
4789 2 18.383069 23.833996 66.411845
4790 2 18.831011 24.503014 65.01054
4791 5 18.059818 24.376237 65.653747
4792 2 5.057506 16.464648 73.158602
4793 2 3.766368 16.868731 74.04267
4794 5 4.491606 16.17468 73.912861
4795 2 31.057529 53.209724 69.255776
4796 2 30.266482 54.468507 69.889498
4797 5 30.584833 53.523451 70.062847
4798 2 12.414173 36.215973 65.875434
4799 2 13.007576 36.624471 67.322119
4800 5 12.624385 36.984474 66.457197
4801 2 4.709807 31.862209 66.954161
4802 2 6.106035 31.066428 66.78335
4803 5 5.661246 31.866722 67.214882
4804 2 7.109788 40.665478 65.969178
4805 2 7.560012 42.11057 66.53566
4806 5 7.475953 41.12722 66.760347
4807 2 14.189952 32.439271 57.518903
4808 2 13.453465 32.506251 56.081894
4809 5 13.647101 31.917076 56.881835
4810 2 22.674258 6.857169 65.643274
4811 2 21.999325 7.131188 64.200613
4812 5 22.873774 6.967803 64.683491
4813 2 1.226931 14.638989 68.172039
4814 2 1.707703 14.196498 66.69388
4815 5 0.999752 14.062089 67.404702
4816 2 24.350671 51.494428 60.745269
4817 2 23.735035 50.530155 59.603751
4818 5 23.843621 50.660463 60.601626
4819 2 7.976552 8.84174 74.042579
4820 2 8.303167 10.423982 74.001017
4821 5 8.705226 9.4976 73.93252
4822 2 6.078378 1.080035 69.733625
4823 2 4.694711 1.840187 69.387894
4824 5 5.231599 0.995943 69.234501
4825 2 19.127103 39.44025 72.463047
4826 2 18.506108 40.128428 71.139162
4827 5 19.257363 40.173461 71.816004
4828 2 28.404087 35.032447 63.795122
4829 2 28.497013 35.393658 65.367631
4830 5 28.914695 34.853925 64.620131
4831 2 25.407482 16.642477 70.57166
4832 2 24.909631 18.085587 71.1022
4833 5 24.606917 17.160438 70.824725
4834 2 18.078885 54.410771 68.332323
4835 2 19.232623 54.007689 67.274821
4836 5 18.247273 53.924234 67.490801
4837 2 17.825649 10.405577 71.033213
4838 2 17.272786 9.684761 69.696552
4839 5 17.576064 10.565633 70.092299
4840 2 33.843672 9.8166 74.042588
4841 2 33.071152 8.418202 73.798472
4842 5 33.897228 8.954741 73.565553
4843 2 9.42513 29.811338 67.459846
4844 2 9.825143 30.42178 66.017887
4845 5 9.758691 30.622273 67.007793
4846 2 35.053884 27.326479 70.349356
4847 2 34.465345 28.824348 70.497364
4848 5 34.21822 27.845638 70.422635
4849 2 10.555633 34.312688 62.077098
4850 2 10.849068 35.665468 62.91123
4851 5 11.107567 35.130232 62.091945
4852 2 27.971122 31.02848 65.63291
4853 2 27.913195 30.040859 64.354964
4854 5 28.085023 30.992592 64.65364
4855 2 33.880431 43.61097 62.872098
4856 2 32.372245 43.175882 62.487434
4857 5 33.163049 42.967768 63.08396
4858 2 16.819966 55.193742 71.716638
4859 2 15.988921 55.188043 70.330554
4860 5 16.063922 55.616504 71.244514
4861 2 21.084528 8.963824 69.095574
4862 2 20.220321 7.654948 69.485302
4863 5 21.117839 8.110974 69.590315
4864 2 22.806641 23.391208 67.671796
4865 2 23.06845 24.553875 68.76338
4866 5 22.908127 24.366322 67.781725
4867 2 12.54953 12.553241 56.531006
4868 2 12.794916 11.958526 58.01357
4869 5 13.220239 12.468162 57.249437
4870 2 36.450457 10.654631 71.00115
4871 2 36.473359 12.134297 70.351565
4872 5 36.896409 11.215205 70.322832
4873 2 16.658679 21.701877 57.367982
4874 2 16.699464 22.625205 56.0422
4875 5 17.263382 22.194919 56.764264
4876 2 3.205308 41.912606 65.879734
4877 2 4.765441 42.331232 65.931056
4878 5 4.000214 42.077218 65.319147
4879 2 7.66265 15.601844 56.368353
4880 2 8.236744 16.912287 57.120051
4881 5 7.495463 16.223073 57.116252
4882 2 35.519117 16.554621 60.007471
4883 2 36.891912 16.164994 60.766102
4884 5 36.502049 16.571374 59.925038
4885 2 28.392847 51.742843 72.58321
4886 2 28.045982 51.031883 73.992507
4887 5 27.667291 51.316488 73.098012
4888 2 19.095846 44.085521 60.928131
4889 2 18.560061 44.017727 59.4049
4890 5 18.483387 44.513553 60.283993
4891 2 25.810185 49.832206 61.540574
4892 2 25.4026 50.976628 62.606439
4893 5 25.20514 50.034662 62.293012
4894 2 27.785744 31.713251 60.395352
4895 2 28.3728 30.510503 59.489451
4896 5 27.675061 30.756882 60.180092
4897 2 26.826243 8.205326 60.081249
4898 2 27.040529 9.605803 59.303663
4899 5 26.361142 8.899484 59.55679
4900 2 12.511639 28.661032 67.269463
4901 2 12.523189 30.035335 66.419137
4902 5 12.167696 29.585518 67.253293
4903 2 9.308959 31.17008 72.714498
4904 2 8.525597 29.98662 73.487584
4905 5 8.475787 30.641833 72.717687
4906 2 28.839749 37.229501 64.205094
4907 2 29.89239 36.53662 63.193284
4908 5 29.774956 36.92732 64.119615
4909 2 16.246064 41.707965 67.389365
4910 2 16.166505 41.577502 68.998261
4911 5 15.649819 41.461434 68.135653
4912 2 19.934228 43.027815 65.455377
4913 2 20.103469 44.617937 65.689395
4914 5 20.372581 43.702264 66.026513
4915 2 21.772086 33.308456 66.002425
4916 2 21.831821 31.762649 65.534656
4917 5 22.388845 32.569464 65.786253
4918 2 10.592159 54.373491 72.995376
4919 2 11.499566 53.040281 73.100538
4920 5 10.974494 53.723579 73.631509
4921 2 20.56386 5.464425 71.516399
4922 2 21.072419 5.00245 70.053579
4923 5 20.85427 5.801185 70.635782
4924 2 1.00123 41.066563 63.560956
4925 2 1.652863 40.362987 62.260091
4926 5 0.99988 40.239278 63.023528
4927 2 24.49508 12.649892 71.834675
4928 2 25.239035 13.312991 73.106967
4929 5 24.479906 12.708404 72.819346
4930 2 8.910313 44.451357 59.803927
4931 2 9.422049 43.24501 58.858016
4932 5 9.614325 43.767646 59.703243
4933 2 21.210438 28.239593 62.995527
4934 2 21.494133 29.014734 64.384976
4935 5 21.927611 28.544405 63.600493
4936 2 36.897717 18.795896 66.298121
4937 2 36.82745 18.506179 64.709719
4938 5 36.80389 18.078929 65.627013
4939 2 17.431589 56.248631 61.663559
4940 2 17.273221 56.693892 60.118063
4941 5 17.818144 56.82346 60.961151
4942 2 7.886093 19.189138 72.219699
4943 2 9.095765 18.713854 71.259129
4944 5 8.144296 18.518479 71.543845
4945 2 33.508408 47.970043 63.077907
4946 2 32.732956 48.82454 61.946357
4947 5 32.854422 48.696221 62.943005
4948 2 7.842566 31.56153 68.839213
4949 2 7.406725 30.109745 68.278624
4950 5 7.924967 30.592034 69.002054
4951 2 36.276684 8.850563 64.656061
4952 2 36.895327 7.450956 65.175944
4953 5 36.76968 8.430024 65.399924
4954 2 31.791008 1.44682 74.046447
4955 2 33.343781 1.654702 73.649487
4956 5 32.597381 0.975627 73.728689
4957 2 20.118176 23.349112 61.705679
4958 2 21.27181 23.066625 60.609674
4959 5 20.273683 23.053812 60.777322
4960 2 16.757633 23.229783 61.832636
4961 2 18.001013 23.976797 61.119985
4962 5 17.74241 23.284647 61.811779
4963 2 21.397966 54.762404 66.204983
4964 2 21.604922 56.288776 66.694118
4965 5 20.99839 55.48043 66.750884
4966 2 10.083713 32.785659 65.462475
4967 2 11.523148 33.155547 66.097381
4968 5 10.738585 32.518202 66.150109
4969 2 1.415167 11.113253 72.829206
4970 2 1.414373 10.411487 71.373383
4971 5 0.999838 10.394158 72.296631
4972 2 20.670843 33.764886 61.281147
4973 2 21.778304 33.011857 62.185787
4974 5 20.88057 33.479132 62.201793
4975 2 10.422016 1.367105 62.733696
4976 2 11.777835 1.752493 63.524345
4977 5 10.785434 1.580966 63.625561
4978 2 7.817601 38.582805 65.999196
4979 2 9.381912 38.920381 65.773659
4980 5 8.584392 39.074897 66.377491
4981 2 34.568103 45.769772 60.802125
4982 2 33.602968 47.054982 60.971374
4983 5 34.412168 46.690673 60.484546
4984 2 10.035627 46.193877 70.243909
4985 2 9.447667 47.648485 70.631615
4986 5 10.250082 47.036507 70.709973
4987 2 27.336308 6.041616 57.601966
4988 2 26.754088 5.116726 56.411381
4989 5 26.613999 5.411126 57.369625
4990 2 13.557039 35.908906 70.76707
4991 2 12.739174 35.790959 69.378157
4992 5 12.872606 36.350849 70.210771
4993 2 16.255595 22.853261 67.170886
4994 2 16.481952 22.161402 65.727976
4995 5 16.235709 23.022691 66.199223
4996 2 10.628687 26.726185 63.655762
4997 2 10.85657 28.230432 63.110597
4998 5 10.190425 27.60277 63.542822
4999 2 11.707531 43.561425 58.674048
5000 2 12.126201 44.037243 60.160725
5001 5 11.700505 44.331372 59.290784
5002 2 13.452738 47.196898 64.155549
5003 2 12.594294 46.734847 62.866566
5004 5 13.525663 46.939442 63.206008
5005 2 8.581574 6.973185 61.719284
5006 2 9.952195 7.076014 62.569413
5007 5 9.251401 7.607635 62.06862
5008 2 21.576593 17.31613 61.425374
5009 2 22.296802 18.748055 61.218533
5010 5 22.004965 18.0641 61.905238
5011 2 16.60893 30.583121 73.491695
5012 2 17.60269 31.070843 72.314213
5013 5 17.544456 30.550296 73.180335
5014 2 18.424847 37.940468 60.956784
5015 2 18.082246 37.790498 59.384515
5016 5 18.828444 37.795185 60.068396
5017 2 24.154321 10.474569 68.048546
5018 2 23.92703 11.991061 68.558924
5019 5 24.457525 11.405366 67.926418
5020 2 23.6682 19.499375 67.90132
5021 2 24.022814 19.245095 69.457433
5022 5 23.652491 18.820221 68.616677
5023 2 34.460488 31.290561 59.592733
5024 2 34.464097 31.788781 61.130153
5025 5 34.001487 31.882473 60.234753
5026 2 13.09601 50.516989 73.47902
5027 2 13.150881 51.698255 72.377432
5028 5 12.535329 51.108731 72.923404
5029 2 6.425387 51.529101 62.390164
5030 2 5.845158 52.008193 60.959884
5031 5 5.966305 52.271085 61.929801
5032 2 32.219244 14.740148 56.041055
5033 2 32.066519 14.21897 57.563206
5034 5 32.723112 14.549934 56.867595
5035 2 35.055734 2.809251 69.066019
5036 2 35.104324 2.403488 67.502404
5037 5 35.490606 3.020151 68.205996
5038 2 9.769905 56.310509 71.082869
5039 2 10.519916 56.718535 72.455055
5040 5 10.608488 56.199625 71.590524
5041 2 24.323126 21.75565 66.365174
5042 2 23.195817 21.324453 65.290399
5043 5 23.362993 21.830175 66.15111
5044 2 26.029906 30.377178 61.590247
5045 2 24.433837 30.130383 61.530665
5046 5 25.333038 29.681551 61.65114
5047 2 14.855823 40.277844 57.541294
5048 2 15.78991 41.156555 56.557808
5049 5 14.920034 40.643717 56.627377
5050 2 11.525732 41.214347 65.871652
5051 2 11.057392 42.425451 66.833827
5052 5 11.819762 42.066076 66.273319
5053 2 15.100806 5.703257 59.101676
5054 2 13.828309 6.292814 58.298513
5055 5 14.148485 5.943991 59.193129
5056 2 28.802352 35.40166 67.724783
5057 2 29.386488 36.057756 69.08133
5058 5 28.989587 36.260541 68.172553
5059 2 23.984535 2.754954 68.912374
5060 2 22.635973 2.992507 69.770771
5061 5 23.0622 2.430833 69.044561
5062 2 6.572056 14.94899 64.656102
5063 2 5.957246 15.923985 63.523279
5064 5 6.08771 15.797427 64.519015
5065 2 7.130685 11.700937 59.291171
5066 2 6.976685 10.788803 57.965958
5067 5 6.671442 10.909008 58.923509
5068 2 5.794237 30.036512 73.90975
5069 2 6.317084 30.346165 72.412205
5070 5 6.141993 30.749873 73.323736
5071 2 21.159077 29.224778 60.145012
5072 2 20.114695 28.442855 61.098825
5073 5 20.28124 29.301058 60.58865
5074 2 15.679153 17.720488 58.800634
5075 2 16.219035 18.297844 57.390994
5076 5 16.382128 17.611756 58.117088
5077 2 32.93151 20.069184 70.083297
5078 2 32.434846 19.994229 71.619396
5079 5 33.235942 19.904936 71.007188
5080 2 6.712585 54.677648 63.324191
5081 2 5.144862 54.363898 63.08818
5082 5 5.820551 55.0954 63.269498
5083 2 6.219296 26.497894 71.125271
5084 2 6.466668 26.614913 72.71807
5085 5 5.934123 26.978863 71.938029
5086 2 16.991998 15.577663 64.490532
5087 2 15.97313 14.411027 64.029268
5088 5 16.223443 15.383646 63.90324
5089 2 1.260998 38.337228 72.220818
5090 2 0.999706 39.193176 73.566543
5091 5 1.10084 38.258657 73.191079
5092 2 36.236711 3.837103 58.021041
5093 2 36.380052 4.380782 59.536218
5094 5 35.84716 4.46011 58.679329
5095 2 30.160369 56.383449 68.812151
5096 2 31.647089 56.103974 69.380879
5097 5 30.969293 56.824127 69.165245
5098 2 6.75903 54.414902 57.565199
5099 2 8.189392 54.336725 56.816969
5100 5 7.264099 54.745798 56.785042
5101 2 32.832932 34.685056 67.037581
5102 2 33.072134 33.736409 65.751211
5103 5 32.873457 33.7442 66.74368
5104 2 14.006321 14.178783 61.37954
5105 2 12.862498 13.175468 61.924447
5106 5 13.520611 13.344993 61.17433
5107 2 2.855947 15.920082 67.435964
5108 2 3.04308 16.876566 66.146773
5109 5 2.650786 16.816143 67.077891
5110 2 32.728162 47.165696 67.038488
5111 2 33.654243 46.014315 66.383818
5112 5 32.974523 46.212892 67.107058
5113 2 29.476284 50.340021 63.23101
5114 2 29.615816 51.014745 61.769103
5115 5 29.482151 51.203788 62.754457
5116 2 26.697435 47.862107 71.511267
5117 2 27.637254 46.719718 72.162101
5118 5 27.474005 47.716852 72.102089
5119 2 29.106569 55.650166 57.783647
5120 2 29.369312 56.823698 56.703978
5121 5 28.985251 56.614898 57.616901
5122 2 7.261173 13.917903 73.79679
5123 2 7.715456 12.437595 73.333961
5124 5 7.831316 13.151192 74.042398
5125 2 27.02938 40.121151 65.950328
5126 2 28.274995 39.113632 65.737622
5127 5 28.010813 40.0491 66.019816
5128 2 8.254845 20.999608 69.449423
5129 2 8.689801 20.859963 70.999652
5130 5 7.93276 20.726831 70.341099
5131 2 7.208179 36.418354 65.914014
5132 2 6.110988 37.409378 65.261374
5133 5 6.273657 36.470295 65.602239
5134 2 18.282787 50.376817 64.398413
5135 2 19.473008 49.329812 64.713136
5136 5 18.56999 49.667697 65.021225
5137 2 36.530936 43.318582 65.531213
5138 2 36.895053 44.738595 64.850861
5139 5 36.374004 44.290518 65.594005
5140 2 19.150942 22.02375 64.402124
5141 2 18.519923 21.334265 65.720578
5142 5 19.3826 21.562534 65.242865
5143 2 26.124432 2.659271 59.936572
5144 2 26.181072 4.14386 59.300425
5145 5 26.685574 3.46692 59.858777
5146 2 19.173352 1.257637 67.745061
5147 2 18.44375 1.008982 69.165535
5148 5 18.301285 1.067145 68.165111
5149 2 7.505427 17.467998 63.182133
5150 2 8.94694 17.776971 63.844303
5151 5 7.966733 18.029347 63.849452
5152 2 31.611969 23.360982 64.679146
5153 2 32.100791 21.82731 64.823369
5154 5 31.579877 22.571508 65.269851
5155 2 28.362497 21.650693 60.151437
5156 2 27.704093 21.353975 58.70563
5157 5 28.547288 21.271789 59.259521
5158 2 15.116353 54.680333 67.691769
5159 2 14.38739 53.352788 68.255802
5160 5 15.248211 53.885225 68.26067
5161 2 13.961641 27.669421 60.565926
5162 2 13.385581 26.171903 60.759552
5163 5 14.228466 26.729072 60.699265
5164 2 20.923006 52.382896 74.044387
5165 2 19.308241 52.320218 74.021995
5166 5 20.155608 51.784409 73.882691
5167 2 24.821593 17.2245 64.00519
5168 2 25.967374 18.349316 63.821154
5169 5 25.442934 17.622692 63.350508
5170 2 7.834521 25.339277 58.827717
5171 2 9.377551 24.942576 59.098973
5172 5 8.513858 24.642768 58.664604
5173 2 23.374229 18.892061 57.206358
5174 2 23.710555 20.383787 57.729365
5175 5 24.008202 19.641591 57.108817
5176 2 36.875846 10.68607 60.204441
5177 2 36.894461 9.362419 59.277351
5178 5 36.852474 9.700169 60.230603
5179 2 33.037838 16.700384 62.839965
5180 2 33.876445 16.525072 61.469601
5181 5 33.554631 16.052473 62.304833
5182 2 9.424754 24.190915 65.197329
5183 2 9.364316 24.929935 63.76133
5184 5 9.935771 24.767029 64.580737
5185 2 33.008683 49.344231 73.011259
5186 2 33.722927 50.363962 74.041744
5187 5 33.241859 49.477107 73.960577
5188 2 22.859934 17.60369 64.922892
5189 2 22.734174 18.149333 66.438924
5190 5 22.533757 18.357804 65.468924
5191 2 24.739058 37.93243 64.253122
5192 2 25.113469 38.071767 62.687141
5193 5 25.186024 37.475382 63.50175
5194 2 9.210703 9.97233 68.249997
5195 2 8.691048 10.051488 66.721733
5196 5 9.307535 10.472558 67.405233
5197 2 18.924199 14.50242 70.6863
5198 2 19.641376 15.207898 69.421447
5199 5 18.798469 15.180822 69.98118
5200 2 34.744624 30.230656 67.977961
5201 2 35.054332 30.330247 66.394908
5202 5 34.358277 30.074368 67.083791
5203 2 27.201903 20.942238 65.915807
5204 2 26.777845 22.243988 66.774595
5205 5 26.492955 21.618412 66.031615
5206 2 15.913406 4.16368 64.929672
5207 2 14.953563 4.037645 63.635564
5208 5 15.913602 4.010462 63.955118
5209 2 26.130421 32.366288 67.235705
5210 2 27.38949 31.468969 67.706299
5211 5 26.502517 31.452782 67.218913
5212 2 2.680451 11.74012 59.462042
5213 2 3.891162 12.089986 58.450276
5214 5 3.605161 11.496981 59.219091
5215 2 17.850594 33.374521 61.468729
5216 2 18.779425 33.045822 62.749793
5217 5 18.688383 32.934711 61.747849
5218 2 26.228802 35.219199 63.528288
5219 2 26.931319 34.777982 62.141315
5220 5 26.243622 34.516188 62.836343
5221 2 8.957671 54.592582 65.559096
5222 2 9.086792 55.167987 64.054393
5223 5 9.568767 55.054067 64.937144
5224 2 27.384749 20.271289 62.395702
5225 2 28.349371 19.617852 61.275694
5226 5 27.471081 20.097208 61.428504
5227 2 16.729912 15.536633 58.915751
5228 2 17.747855 16.629026 59.534108
5229 5 17.461499 15.658718 59.566217
5230 2 35.107812 15.75214 66.297962
5231 2 33.720324 15.581324 67.108883
5232 5 34.694194 15.307491 67.075419
5233 2 31.086333 42.358824 60.289586
5234 2 30.401237 42.327199 61.752985
5235 5 30.309319 42.01868 60.793353
5236 2 29.434187 18.762159 66.087811
5237 2 28.003453 18.934565 66.819366
5238 5 28.737915 19.421021 66.320915
5239 2 26.539813 1.787694 72.559511
5240 2 25.46482 1.211945 73.620075
5241 5 26.176456 1.915433 73.467743
5242 2 22.571194 35.049459 63.008694
5243 2 24.05446 34.536495 62.623097
5244 5 23.133349 34.743368 62.258014
5245 2 22.860871 13.567318 67.457557
5246 2 23.389569 13.816741 65.950851
5247 5 23.630117 13.430888 66.855164
5248 2 35.861329 39.847136 63.297029
5249 2 34.991472 38.485169 63.27995
5250 5 35.390101 39.20082 63.874481
5251 2 18.430685 30.660367 67.999463
5252 2 18.74104 30.438063 66.429062
5253 5 18.178682 30.124841 67.210198
5254 2 29.939503 34.723928 74.043009
5255 2 30.21707 33.153543 73.780819
5256 5 30.642196 34.071641 73.810685
5257 2 18.206962 49.670948 71.530175
5258 2 17.21063 49.585392 70.260569
5259 5 17.585121 50.19772 70.974248
5260 2 24.25905 41.236001 71.297263
5261 2 25.203554 41.937396 70.189178
5262 5 25.035909 41.0848 70.708314
5263 2 17.518085 44.648894 56.042358
5264 2 18.540819 44.20741 57.213257
5265 5 18.06933 44.993682 56.784303
5266 2 17.175683 29.733861 59.718129
5267 2 17.811287 29.739945 58.23224
5268 5 17.904401 30.109996 59.169747
5269 2 24.511091 48.538782 63.748819
5270 2 24.120099 50.038625 64.206522
5271 5 24.403504 49.124296 64.535476
5272 2 17.701618 6.002334 65.672041
5273 2 16.841341 5.448567 66.923105
5274 5 17.676338 5.955078 66.657109
5275 2 15.143803 32.235995 73.436928
5276 2 15.536896 31.732357 71.952434
5277 5 14.777706 31.832939 72.61428
5278 2 32.324155 24.0998 59.146788
5279 2 32.922639 24.228637 60.642486
5280 5 32.149172 24.480254 60.040021
5281 2 22.771146 42.346908 69.427001
5282 2 21.27069 42.246974 68.834936
5283 5 22.096927 42.828882 68.891874
5284 2 34.343249 53.075348 62.42318
5285 2 33.268581 51.999117 62.969723
5286 5 33.946587 52.698759 63.244198
5287 2 14.101564 14.310187 67.720737
5288 2 15.292211 13.424397 67.080714
5289 5 15.079423 14.17972 67.720038
5290 2 13.618931 28.216095 57.443159
5291 2 13.177966 29.769796 57.384346
5292 5 13.520371 28.989262 56.838403
5293 2 12.302565 4.031006 74.054385
5294 2 13.03969 5.219975 73.245129
5295 5 13.125056 4.574674 74.020259
5296 2 1.000463 13.131265 63.994226
5297 2 1.492201 14.668528 64.077362
5298 5 1.510992 13.771017 64.544961
5299 2 15.238203 18.448213 70.965413
5300 2 15.704617 18.765503 69.450922
5301 5 15.881283 18.967511 70.426888
5302 2 8.005065 33.462286 57.940607
5303 2 7.602671 33.598123 56.381273
5304 5 7.73584 34.108271 57.2453
5305 2 30.891763 1.23774 72.052902
5306 2 31.583189 1.415198 70.602959
5307 5 31.687297 0.999952 71.520161
5308 2 31.000206 12.584453 58.879059
5309 2 31.211808 13.071639 60.405418
5310 5 30.732759 13.270006 59.536114
5311 2 21.31524 13.344342 71.124942
5312 2 22.356274 12.899783 72.278419
5313 5 22.111507 13.636414 71.62881
5314 2 8.908439 42.83901 68.887581
5315 2 8.691185 42.431929 70.436445
5316 5 9.107647 42.144885 69.559695
5317 2 10.144916 34.138435 58.07737
5318 2 11.262906 34.154797 56.91044
5319 5 11.108655 34.021611 57.901901
5320 2 6.474848 0.999999 64.681298
5321 2 6.734143 1.26838 63.108837
5322 5 6.023386 1.192261 63.825466
5323 2 15.396938 11.746203 69.13589
5324 2 15.836753 10.956846 67.795975
5325 5 16.177893 11.422201 68.627597
5326 2 23.044488 47.893964 58.356651
5327 2 23.596614 47.940881 59.874825
5328 5 23.589675 48.42385 58.98532
5329 2 34.401311 55.431191 62.141946
5330 2 33.610736 56.8241 62.35802
5331 5 34.483548 56.410458 62.055322
5332 2 12.379701 47.155514 59.794242
5333 2 13.62703 47.480292 60.769223
5334 5 12.851414 46.850925 60.60538
5335 2 29.477942 26.479561 64.129436
5336 2 27.875778 26.280074 64.057529
5337 5 28.761809 25.801782 64.161037
5338 2 32.611755 22.187397 72.857654
5339 2 32.163736 22.154025 71.305217
5340 5 31.831921 22.099194 72.2599
5341 2 6.558701 56.294099 60.963437
5342 2 6.184585 56.126558 59.400152
5343 5 6.361543 55.627918 60.263037
5344 2 5.31053 10.615456 71.738193
5345 2 4.429763 9.286032 71.47594
5346 5 4.464111 10.166725 71.973662
5347 2 2.775069 28.166119 60.193477
5348 2 2.73129 29.465578 61.153364
5349 5 2.378139 29.063639 60.294146
5350 2 35.899909 51.298942 58.448724
5351 2 35.749562 51.932038 59.928076
5352 5 35.253894 51.474716 59.173293
5353 2 4.940642 15.730424 57.660378
5354 2 5.329726 15.884441 59.2214
5355 5 5.214049 16.382814 58.348032
5356 2 24.650107 42.942766 58.622485
5357 2 24.024886 43.251026 57.164415
5358 5 24.845912 43.353959 57.747379
5359 2 11.019913 52.25362 58.937304
5360 2 11.368409 51.907618 60.477021
5361 5 11.644076 52.457906 59.673456
5362 2 13.314152 22.629095 62.808529
5363 2 13.910028 22.224898 61.361652
5364 5 13.963114 22.897892 62.115833
5365 2 22.511275 22.957533 63.53601
5366 2 23.964637 23.091887 64.229973
5367 5 22.978792 23.295112 64.336447
5368 2 29.189751 40.14393 72.642232
5369 2 29.413308 40.877731 71.21975
5370 5 29.02857 40.983531 72.149971
5371 2 9.370269 29.661097 62.349537
5372 2 9.133412 30.156645 63.86948
5373 5 8.680327 29.786788 63.043377
5374 2 31.874873 37.969382 62.091601
5375 2 31.817529 37.6037 63.664777
5376 5 32.404519 37.965698 62.923882
5377 2 16.565449 21.259585 59.563349
5378 2 16.783794 19.755007 59.0152
5379 5 16.888292 20.362788 59.817827
5380 2 26.946096 1.00515 65.77399
5381 2 26.261049 2.418196 66.155969
5382 5 26.145837 1.562993 65.62693
5383 2 2.884979 10.067887 69.656168
5384 2 3.39107 9.978785 68.123905
5385 5 2.985131 9.45542 68.889301
5386 2 15.146865 56.185171 63.761055
5387 2 14.923439 54.58763 63.661863
5388 5 15.531664 55.313965 64.018271
5389 2 3.640377 37.549202 61.504957
5390 2 3.67125 38.095074 63.025801
5391 5 3.177046 38.141316 62.143672
5392 2 32.82684 40.896537 68.481353
5393 2 32.977872 39.388249 69.041846
5394 5 32.853953 40.357211 69.306958
5395 2 20.087375 50.448293 66.503782
5396 2 19.641239 48.938616 66.86948
5397 5 19.621049 49.901818 67.179901
5398 2 26.488639 11.176604 69.016113
5399 2 27.222443 11.544544 70.408251
5400 5 26.725025 11.92545 69.613258
5401 2 5.325903 7.13294 64.636458
5402 2 4.78387 5.697453 64.12904
5403 5 5.600277 6.291486 64.200677
5404 2 26.239421 17.108001 72.553712
5405 2 25.681915 17.222527 74.066314
5406 5 25.540304 16.779464 73.167332
5407 2 35.955306 45.043793 59.258085
5408 2 36.895548 46.262482 59.750669
5409 5 36.587679 45.733108 58.944749
5410 2 17.088264 15.699529 68.187513
5411 2 16.724099 15.872588 69.752546
5412 5 16.506664 15.358938 68.907909
5413 2 5.179148 40.431152 69.570827
5414 2 3.772412 39.812999 69.069952
5415 5 4.379837 39.936445 69.870154
5416 2 24.580272 35.911024 72.647734
5417 2 24.880287 35.151909 74.042593
5418 5 25.275565 35.751266 73.329113
5419 2 27.623166 47.413778 66.311574
5420 2 28.176396 47.305807 67.826227
5421 5 28.263515 47.806664 66.950967
5422 2 6.842414 47.517932 70.271002
5423 2 6.190098 48.794752 71.01673
5424 5 6.062857 48.122515 70.270784
5425 2 6.461502 11.169159 66.961213
5426 2 5.510166 11.192885 65.654961
5427 5 5.592242 11.487195 66.619934
5428 2 20.332212 53.725704 69.597178
5429 2 21.329622 54.019004 68.359824
5430 5 20.604611 54.414188 68.945242
5431 2 28.142317 23.794258 59.710644
5432 2 28.309298 23.743197 58.103969
5433 5 28.731737 23.479081 58.985056
5434 2 17.434288 17.886228 68.414896
5435 2 18.834112 17.201892 68.843933
5436 5 18.335918 17.654828 68.08817
5437 2 4.19505 41.605272 62.266279
5438 2 3.181816 42.377698 63.260568
5439 5 3.42421 42.220456 62.290492
5440 2 36.856683 44.731459 61.513052
5441 2 36.457017 43.916957 62.850494
5442 5 36.8956 43.843545 61.941218
5443 2 27.4681 13.320232 72.328183
5444 2 28.336503 12.47982 73.401253
5445 5 28.180427 12.643215 72.414607
5446 2 25.318899 23.352879 73.191813
5447 2 25.49472 24.95258 73.043694
5448 5 25.453261 24.07775 72.536268
5449 2 19.085732 27.026101 69.505067
5450 2 18.887543 27.768034 68.083043
5451 5 19.422165 27.763376 68.942511
5452 2 17.342662 27.982643 66.424968
5453 2 16.972927 27.232946 65.041802
5454 5 17.732082 27.511754 65.65047
5455 2 12.222943 48.909882 61.672251
5456 2 12.600105 50.028662 60.568632
5457 5 12.141703 49.138335 60.715988
5458 2 6.049427 51.627061 73.125778
5459 2 4.827336 51.092166 74.03807
5460 5 5.684726 51.630117 74.04241
5461 2 10.980298 39.820537 73.087864
5462 2 10.83303 38.519593 74.035362
5463 5 10.808399 38.849148 73.078641
5464 2 21.254444 11.125526 69.55859
5465 2 22.650219 11.505228 70.279378
5466 5 21.932726 11.836419 69.646888
5467 2 13.867938 9.670105 67.066537
5468 2 14.381499 9.483994 65.545513
5469 5 14.104772 8.994908 66.387382
5470 2 24.214989 8.246584 63.49889
5471 2 24.759149 7.624845 62.109924
5472 5 24.283383 8.413834 62.529055
5473 2 2.718332 5.528619 66.802858
5474 2 3.320828 7.014468 66.600016
5475 5 3.082133 6.150803 66.129236
5476 2 8.401229 34.468758 60.843557
5477 2 8.534465 35.146228 62.304781
5478 5 8.031434 34.458752 61.758096
5479 2 27.665994 42.299389 70.41165
5480 2 27.128969 42.309804 71.935918
5481 5 27.201252 41.75629 71.091569
5482 2 8.187136 52.097113 66.856326
5483 2 9.33613 53.179979 67.20145
5484 5 9.13325 52.191741 67.119281
5485 2 6.156655 19.074619 62.526608
5486 2 5.029492 17.961881 62.205341
5487 5 5.183273 18.915081 62.509129
5488 2 9.769069 28.383102 57.294265
5489 2 8.221469 28.068898 57.637927
5490 5 9.134629 28.2458 58.037141
5491 2 26.774241 13.392219 60.365552
5492 2 26.508594 13.522929 58.776765
5493 5 26.13825 13.162701 59.647173
5494 2 33.568441 12.633706 58.121723
5495 2 33.144458 13.474276 59.435335
5496 5 33.201074 12.547128 59.033193
5497 2 4.568371 30.190187 64.402097
5498 2 4.081445 28.731007 63.906524
5499 5 4.719026 29.494474 63.719076
5500 2 5.290526 48.496342 73.654595
5501 2 4.74611 49.505445 72.51564
5502 5 5.550609 49.250818 73.074635
5503 2 34.293018 50.369018 71.551659
5504 2 34.544737 49.84418 70.043986
5505 5 34.082668 49.64005 70.921112
5506 2 36.895581 30.472205 60.813587
5507 2 35.420849 29.819353 60.917735
5508 5 36.220892 29.955282 60.312771
5509 2 36.322575 25.999175 62.961841
5510 2 36.665325 26.559437 64.438501
5511 5 36.484876 26.823905 63.478281
5512 2 29.39703 17.899647 60.342774
5513 2 28.472992 16.611765 60.027482
5514 5 29.385369 17.026086 59.884532
5515 2 8.381215 13.843006 71.765239
5516 2 6.879359 13.310272 71.495945
5517 5 7.837547 13.272322 71.171964
5518 2 2.390055 8.368052 58.105149
5519 2 2.3588 9.583566 59.169782
5520 5 1.813588 9.07106 58.48816
5521 2 2.520872 14.945457 59.704596
5522 2 3.885377 14.720369 60.540871
5523 5 3.155596 14.25677 60.014541
5524 2 36.03314 55.792989 59.6962
5525 2 34.61262 56.545366 59.863378
5526 5 35.123944 55.695776 60.06653
5527 2 3.612777 56.816524 70.672442
5528 2 4.633879 55.579818 70.871953
5529 5 4.428943 56.531857 71.147908
5530 2 30.677099 15.792909 58.219651
5531 2 29.898338 14.575993 57.495398
5532 5 30.022739 15.070106 58.369986
5533 2 24.145647 56.74029 70.031026
5534 2 24.675564 56.079021 71.407183
5535 5 24.117548 56.826076 71.013412
5536 2 4.774261 5.007061 71.272468
5537 2 4.605003 5.488264 72.805991
5538 5 4.136663 5.047906 72.024153
5539 2 4.277616 36.773641 70.23767
5540 2 5.519135 37.49252 70.981807
5541 5 4.519611 37.527589 70.826085
5542 2 11.03294 36.11501 58.572929
5543 2 9.843302 35.859912 59.636687
5544 5 10.841499 35.789681 59.48438
5545 2 14.678251 49.67188 61.820984
5546 2 14.015945 49.083067 63.172482
5547 5 14.491545 48.837648 62.313353
5548 2 36.89488 50.285072 71.322084
5549 2 36.895493 49.813893 69.776158
5550 5 36.598156 50.53941 70.41627
5551 2 2.116039 26.846516 61.825716
5552 2 1.70223 25.937964 60.554815
5553 5 1.426002 26.229947 61.483778
5554 2 3.714109 16.629434 71.42474
5555 2 3.726463 18.053204 72.189346
5556 5 3.559901 17.596041 71.301773
5557 2 33.547496 6.677183 67.891146
5558 2 32.584403 7.543684 68.857336
5559 5 32.855915 7.380691 67.895961
5560 2 31.716161 18.36828 59.322402
5561 2 32.324611 16.876587 59.193812
5562 5 31.507 17.413286 59.45457
5563 2 22.030301 7.282247 72.925544
5564 2 22.702311 6.339637 74.053278
5565 5 21.87462 6.488219 73.489914
5566 2 8.145806 0.996992 71.995816
5567 2 8.734533 1.098013 70.49412
5568 5 8.981077 0.999735 71.470893
5569 2 34.322958 10.414255 63.286227
5570 2 33.138228 10.371349 64.384621
5571 5 34.097493 10.647938 64.217779
5572 2 5.313278 42.815 60.80873
5573 2 5.895353 43.16026 62.27634
5574 5 6.005762 42.564803 61.465311
5575 2 35.511726 33.650866 57.3457
5576 2 36.74581 34.66528 57.590432
5577 5 35.738902 34.59604 57.513827
5578 2 28.54246 33.615995 61.199598
5579 2 29.440947 33.847667 59.876364
5580 5 29.437887 33.888359 60.887731
5581 2 4.410561 27.495869 61.902349
5582 2 4.938635 28.260143 60.579882
5583 5 5.171529 27.565639 61.278417
5584 2 28.983599 29.573641 70.505648
5585 2 28.594453 29.434099 68.943281
5586 5 28.26465 29.73848 69.850535
5587 2 21.726986 44.806075 74.04273
5588 2 23.34211 44.748895 74.042152
5589 5 22.497886 44.190506 74.038389
5590 2 15.030615 32.05646 64.361641
5591 2 14.666723 30.948116 65.480146
5592 5 14.27945 31.601849 64.811431
5593 2 3.853275 56.650192 59.117398
5594 2 4.02595 56.8237 60.714888
5595 5 4.033263 56.157478 59.952902
5596 2 20.610837 41.547233 60.582108
5597 2 19.998932 42.351862 59.32114
5598 5 19.861326 42.121953 60.29722
5599 2 35.820255 39.994614 57.665731
5600 2 34.97824 41.356392 57.445572
5601 5 35.658113 40.894427 58.036241
5602 2 28.639045 8.477186 57.546762
5603 2 29.133041 9.933409 57.049491
5604 5 28.577669 9.442848 57.739013
5605 2 6.267897 18.408761 65.406303
5606 2 5.499527 19.749303 64.932541
5607 5 6.271446 19.126765 64.729776
5608 2 22.795949 12.085322 61.090419
5609 2 21.185552 11.953936 61.054956
5610 5 21.997425 11.974755 61.659072
5611 2 11.275509 11.154198 68.113977
5612 2 11.297421 10.815385 66.533907
5613 5 11.834807 10.782993 67.39105
5614 2 15.143796 37.576842 60.459773
5615 2 15.367256 37.14418 62.0008
5616 5 15.808648 37.215473 61.092715
5617 2 29.534521 46.50023 65.722511
5618 2 29.79435 46.149248 64.166491
5619 5 29.447559 45.787543 65.045942
5620 2 7.815856 49.182277 65.753042
5621 2 6.46984 50.075977 65.790959
5622 5 7.356518 49.902081 66.247129
5623 2 1.634134 50.746367 69.021172
5624 2 0.999697 50.777766 70.50724
5625 5 1.015298 50.27575 69.628455
5626 2 2.079395 45.744922 67.160324
5627 2 1.841174 45.348128 68.708775
5628 5 1.405839 45.406742 67.796868
5629 2 12.680113 33.507518 74.043416
5630 2 13.221604 33.384875 72.525641
5631 5 13.46665 33.661074 73.468081
5632 2 7.708272 48.154746 73.9198
5633 2 7.461651 47.654772 72.402862
5634 5 7.715579 48.448088 72.977925
5635 2 6.106847 26.470072 59.586647
5636 2 5.071723 25.545022 60.41411
5637 5 5.6732 25.584083 59.600952
5638 2 36.021674 28.442955 68.089522
5639 2 36.895656 27.64333 69.188909
5640 5 36.763225 27.801413 68.19795
5641 2 18.999734 48.337963 73.73021
5642 2 19.850933 48.469177 72.36268
5643 5 19.029813 48.05512 72.78558
5644 2 23.57904 29.13086 67.219785
5645 2 23.275649 30.652573 66.767859
5646 5 22.878196 29.824656 67.193431
5647 2 19.124998 42.842924 68.712209
5648 2 18.692583 41.359377 69.185495
5649 5 18.349041 42.281666 68.949087
5650 2 25.18837 53.089345 70.62443
5651 2 25.909242 53.499317 72.011571
5652 5 25.01809 53.308729 71.571058
5653 2 35.214053 41.868405 62.723882
5654 2 35.652816 41.122308 61.359066
5655 5 35.977156 41.705249 62.120322
5656 2 2.652077 38.021708 66.832743
5657 2 3.314175 37.557017 68.23188
5658 5 3.360556 38.237859 67.484331
5659 2 31.900666 22.607907 69.172096
5660 2 33.096592 23.692555 69.244156
5661 5 32.750004 22.879836 68.750303
5662 2 30.395813 2.292052 68.115264
5663 2 30.602677 3.490413 67.050824
5664 5 30.154628 3.228462 67.919824
5665 2 9.224637 51.552737 59.997409
5666 2 9.316106 50.342013 61.064028
5667 5 8.691542 50.866703 60.464739
5668 2 3.558813 42.504232 69.182787
5669 2 4.266172 41.668871 67.993792
5670 5 4.425637 42.326359 68.746659
5671 2 7.295952 33.182867 72.852281
5672 2 8.093589 32.434064 74.041804
5673 5 7.692337 33.314972 73.745958
5674 2 26.849421 40.630036 69.236021
5675 2 27.597052 39.696519 68.149058
5676 5 27.732922 40.404753 68.85932
5677 2 11.137727 10.192118 72.680505
5678 2 10.760836 9.214032 71.450384
5679 5 11.519416 9.565746 72.020805
5680 2 19.018452 5.893586 62.863988
5681 2 17.578836 5.327912 63.332405
5682 5 18.062658 6.125743 62.940093
5683 2 32.553794 38.782762 60.163601
5684 2 34.093998 38.992306 60.606046
5685 5 33.452882 39.003601 59.822867
5686 2 5.017505 35.879008 59.661254
5687 2 5.488066 37.424724 59.696345
5688 5 5.213972 36.633772 60.265376
5689 2 16.102181 45.22579 68.834473
5690 2 17.026391 44.99027 70.139181
5691 5 16.436111 44.53494 69.454512
5692 2 35.878183 19.94165 69.753561
5693 2 36.581433 19.462734 68.379526
5694 5 36.495954 20.225935 69.038878
5695 2 36.547854 11.002404 65.024015
5696 2 36.894498 12.28624 65.942438
5697 5 36.333603 11.954574 65.167892
5698 2 13.250217 12.09288 70.466601
5699 2 13.226264 11.179518 69.133526
5700 5 12.778439 11.347073 70.025661
5701 2 5.204674 25.037229 63.583846
5702 2 5.182352 23.591802 62.861254
5703 5 4.861688 24.115872 63.66565
5704 2 30.276995 19.131303 68.081991
5705 2 29.01857 18.358191 68.738162
5706 5 29.390356 19.267061 68.492687
5707 2 7.649141 20.787802 65.26508
5708 2 6.926115 21.891387 66.198477
5709 5 6.887896 21.413898 65.30681
5710 2 25.775338 25.522681 67.096423
5711 2 25.304246 25.490553 68.642041
5712 5 25.023273 25.289279 67.690689
5713 2 21.87542 10.899208 73.0546
5714 2 20.951069 11.280648 71.784964
5715 5 21.717428 10.70005 72.101392
5716 2 32.963413 43.573618 59.606522
5717 2 34.069305 43.101046 60.686139
5718 5 33.420826 43.838089 60.439625
5719 2 31.933234 45.328025 65.07275
5720 2 31.849149 46.846912 64.527032
5721 5 31.683467 46.248157 65.326137
5722 2 32.496018 55.541168 60.962787
5723 2 32.006644 55.701885 59.430932
5724 5 32.303559 56.204136 60.258043
5725 2 19.540858 28.311848 58.559876
5726 2 19.388868 26.756062 58.149601
5727 5 19.564217 27.392489 58.916896
5728 2 34.103668 53.086808 67.611356
5729 2 33.478999 52.751782 66.158964
5730 5 33.510359 53.435611 66.904566
5731 2 4.21165 47.186117 62.529564
5732 2 3.215088 46.064462 63.130103
5733 5 3.386555 47.059209 63.055247
5734 2 7.046553 53.463555 71.07734
5735 2 6.938085 52.631575 69.696059
5736 5 6.909589 53.557101 70.104858
5737 2 15.907706 2.488227 66.894681
5738 2 14.969533 1.724423 65.823079
5739 5 15.849149 2.208776 65.950377
5740 2 27.525742 9.647588 63.330185
5741 2 26.656755 10.061664 62.031995
5742 5 27.114871 9.293623 62.506095
5743 2 35.1439 6.039911 64.649221
5744 2 35.26233 5.142983 65.988396
5745 5 35.782179 5.553615 65.223109
5746 2 14.142668 23.567785 66.867113
5747 2 12.954445 24.462579 67.499068
5748 5 13.225118 23.893045 66.707302
5749 2 32.813398 14.615852 64.260106
5750 2 32.639992 15.903299 65.221515
5751 5 32.86097 14.915789 65.198725
5752 2 3.837403 45.698508 69.720308
5753 2 4.416881 45.159053 71.12924
5754 5 3.900853 44.901032 70.297575
5755 2 15.827311 22.86016 74.043735
5756 2 15.209324 22.82345 72.550872
5757 5 15.376847 23.40932 73.359092
5758 2 27.421368 17.108735 67.897534
5759 2 27.054744 17.613365 69.38845
5760 5 26.891323 17.770424 68.401965
5761 2 26.259148 35.363211 71.34279
5762 2 27.573268 35.449907 72.279524
5763 5 26.79312 34.865644 72.006517
5764 2 10.171658 3.631319 58.097422
5765 2 10.320301 5.216265 57.81859
5766 5 10.063417 4.521572 58.508474
5767 2 2.210369 9.021471 66.533463
5768 2 0.9999 9.72893 67.337305
5769 5 1.27001 9.309632 66.456534
5770 2 2.723851 24.060334 66.607731
5771 2 2.735008 23.768391 65.018222
5772 5 2.178563 24.118842 65.787689
5773 2 11.880778 56.821268 64.248614
5774 2 10.96607 56.820563 65.580982
5775 5 10.955178 56.718311 64.57403
5776 2 26.26095 53.528957 58.186404
5777 2 26.004567 53.419655 59.778326
5778 5 25.554815 53.486215 58.873992
5779 2 35.444212 6.379133 69.498044
5780 2 36.789873 6.112207 70.352352
5781 5 35.898559 5.72065 70.075278
5782 2 14.606591 33.260395 70.462814
5783 2 15.57703 33.95847 71.550396
5784 5 14.704762 34.050576 71.045229
5785 2 32.456862 1.663036 65.782124
5786 2 33.636621 0.997817 66.66391
5787 5 32.642361 1.183215 66.623903
5788 2 1.938549 27.68957 69.666269
5789 2 2.346781 26.660356 70.843537
5790 5 2.684467 27.403565 70.245093
5791 2 12.509804 7.289807 73.740472
5792 2 11.252437 8.303286 73.802
5793 5 11.574079 7.373907 74.041434
5794 2 4.414788 34.746303 67.859149
5795 2 3.886522 35.918927 66.880484
5796 5 4.555552 35.688909 67.604375
5797 2 23.631272 42.836884 60.654008
5798 2 22.623127 42.157138 61.71866
5799 5 23.584784 42.199705 61.405721
5800 2 15.743779 49.968214 58.557125
5801 2 14.607863 50.192624 59.684614
5802 5 14.797605 50.213516 58.690587
5803 2 15.68095 19.030015 61.391338
5804 2 14.596194 20.021116 60.718345
5805 5 15.173893 19.204568 60.563295
5806 2 27.740825 9.817012 72.356934
5807 2 28.997609 10.022129 73.352082
5808 5 28.475728 10.433118 72.58837
5809 2 13.331419 25.266825 71.078584
5810 2 13.59936 24.700044 69.589
5811 5 13.962048 25.298175 70.32059
5812 2 26.48347 7.054318 74.025382
5813 2 25.757106 6.853635 72.595691
5814 5 25.607775 6.907863 73.595335
5815 2 27.194394 46.352351 62.806281
5816 2 27.382241 46.216981 64.405744
5817 5 27.711908 45.888913 63.506735
5818 2 31.004449 46.420202 56.404819
5819 2 32.404677 46.989292 56.977
5820 5 31.412819 47.173297 56.894014
5821 2 26.362357 42.323872 61.632911
5822 2 26.902966 42.153562 63.146394
5823 5 27.028943 42.658831 62.278431
5824 2 5.357122 38.154231 68.890535
5825 2 5.720268 37.547755 67.437192
5826 5 5.842187 37.426158 68.434627
5827 2 13.388246 16.269889 69.142409
5828 2 14.871669 16.827587 68.825669
5829 5 13.887147 16.942077 68.620401
5830 2 16.075144 54.522002 61.790026
5831 2 15.475207 53.036166 61.579639
5832 5 16.229496 53.663178 61.329778
5833 2 18.216115 32.491755 69.198939
5834 2 17.171127 32.467059 70.431532
5835 5 17.299598 32.740973 69.465616
5836 2 14.591316 50.099792 71.920236
5837 2 15.05051 49.985206 70.37495
5838 5 15.076955 50.569256 71.201215
5839 2 24.774288 35.310933 69.267398
5840 2 23.625637 36.097726 70.088041
5841 5 24.400228 35.451261 70.169406
5842 2 21.784809 29.386576 70.404601
5843 2 21.460946 28.582144 69.040821
5844 5 22.191602 28.837453 69.693114
5845 2 22.101469 25.052716 61.06578
5846 2 21.311194 25.932175 59.964003
5847 5 22.160443 25.41364 60.149545
5848 2 29.211436 38.087546 69.911207
5849 2 28.675558 37.494155 71.315706
5850 5 29.48639 37.589963 70.717458
5851 2 30.786259 46.907897 74.041618
5852 2 30.806715 45.29189 74.041889
5853 5 30.220474 46.108454 73.923259
5854 2 15.42902 25.607723 73.981646
5855 2 15.716464 25.832287 72.407212
5856 5 16.113399 25.504371 73.278671
5857 2 17.417177 45.121832 62.500144
5858 2 17.618516 45.556337 64.043699
5859 5 17.179091 45.808364 63.167391
5860 2 10.48092 30.060361 71.198348
5861 2 9.915551 29.760376 69.714346
5862 5 9.719633 30.223868 70.592594
5863 2 18.64309 41.862867 66.802638
5864 2 18.568863 41.304939 65.287679
5865 5 18.035174 41.471471 66.131462
5866 2 1.592503 19.613985 65.130867
5867 2 3.007831 19.331572 65.858181
5868 5 2.568987 19.709676 65.028133
5869 2 20.206387 23.674683 68.027345
5870 2 20.90161 24.948576 68.738512
5871 5 20.48791 24.608567 67.879574
5872 2 33.69151 1.062629 70.084213
5873 2 34.40472 1.290946 71.516379
5874 5 33.875811 1.738701 70.778614
5875 2 26.006654 55.58208 66.621426
5876 2 26.267676 54.581326 65.379551
5877 5 25.937793 54.640678 66.334633
5878 2 5.142982 50.743792 63.994942
5879 2 5.165344 52.359765 63.990022
5880 5 5.564959 51.531502 64.412887
5881 2 10.629749 39.945192 63.642255
5882 2 10.583154 39.542403 62.077811
5883 5 10.289407 40.229146 62.76091
5884 2 24.185261 4.740968 60.101065
5885 2 24.566222 3.918547 61.439119
5886 5 24.780095 4.740222 60.888087
5887 2 32.473151 25.806093 63.628246
5888 2 31.596524 27.085147 64.083704
5889 5 31.640268 26.073903 64.084113
5890 2 18.929041 46.473291 65.554209
5891 2 17.719957 47.537168 65.419387
5892 5 18.718138 47.437008 65.554034
5893 2 30.162111 41.176695 66.138884
5894 2 30.384419 39.699451 65.522261
5895 5 30.796339 40.617677 65.630469
5896 2 8.451811 24.49493 72.104666
5897 2 8.748927 24.602091 73.689637
5898 5 8.320212 25.065632 72.898524
5899 2 26.417483 38.007719 66.145684
5900 2 25.143955 39.002602 66.130476
5901 5 25.77867 38.485743 66.725893
5902 2 35.836218 46.465642 73.304325
5903 2 34.708288 45.725764 72.414241
5904 5 35.007502 45.93319 73.358684
5905 2 34.518969 23.07281 61.620202
5906 2 36.055867 23.171089 62.110284
5907 5 35.450602 22.899751 61.34572
5908 2 33.985813 11.064837 60.461906
5909 2 34.87741 10.217154 59.413867
5910 5 34.746648 11.127295 59.837038
5911 2 7.332806 28.210165 63.774973
5912 2 6.149759 27.254917 63.227434
5913 5 6.677206 27.525382 64.047907
5914 2 28.481411 12.723493 57.481874
5915 2 29.932752 12.231098 56.968988
5916 5 29.065493 12.671265 56.688557
5917 2 28.805445 12.134079 68.933096
5918 2 29.145029 12.614181 70.438447
5919 5 29.472404 12.612166 69.480663
5920 2 1.123884 7.108708 66.540721
5921 2 1.104314 6.557595 68.059861
5922 5 1.000151 7.381196 67.480759
5923 2 29.558081 14.129379 64.409043
5924 2 30.555542 15.314561 64.869816
5925 5 30.198158 14.801177 64.074051
5926 2 23.255634 5.880179 70.373735
5927 2 23.82727 6.836205 71.544692
5928 5 23.042244 6.266078 71.256218
5929 2 14.332516 6.970915 68.953012
5930 2 13.930852 7.047676 67.389468
5931 5 13.600326 7.202164 68.333615
5932 2 19.485426 16.027492 65.779661
5933 2 18.004915 16.394045 66.314096
5934 5 18.887359 15.964494 66.561695
5935 2 33.624008 7.592255 63.265398
5936 2 32.112636 7.881412 63.7594
5937 5 32.989537 8.312069 63.494625
5938 2 27.313474 14.132477 65.294112
5939 2 27.345169 14.554873 63.734473
5940 5 26.77021 14.518464 64.566713
5941 2 1.736316 19.961822 69.819676
5942 2 3.248017 19.747101 69.290007
5943 5 2.351707 19.297575 69.428141
5944 2 15.479059 53.198801 66.107534
5945 2 13.936137 53.679292 66.127902
5946 5 14.647192 53.214594 65.577461
5947 2 24.420717 19.426696 65.836083
5948 2 25.739749 19.080117 66.703224
5949 5 25.292189 19.783865 66.129678
5950 2 36.90587 14.962023 62.761793
5951 2 36.88764 15.077507 64.373695
5952 5 36.699336 15.570774 63.510123
5953 2 6.272392 2.128494 71.81625
5954 2 5.861651 3.192764 70.671473
5955 5 6.636268 2.704257 71.102582
5956 2 29.675166 48.163194 69.469517
5957 2 28.275569 47.561417 70.008858
5958 5 29.22887 47.331929 69.7577
5959 2 21.199199 19.189291 57.408137
5960 2 20.682601 20.14705 58.603009
5961 5 21.448813 19.962302 57.967939
5962 2 10.598888 17.212253 66.46282
5963 2 11.013779 17.206497 64.900856
5964 5 10.234085 17.201439 65.546287
5965 2 10.334151 5.46758 73.747704
5966 2 9.338443 4.226623 74.031409
5967 5 10.205997 4.502394 73.588884
5968 2 22.736955 34.16533 69.512474
5969 2 22.548709 34.460326 71.090268
5970 5 22.102771 34.513492 70.183163
5971 2 1.7919 54.682099 60.316868
5972 2 1.000977 53.416126 60.936264
5973 5 1.645912 54.16757 61.14583
5974 2 3.146465 54.839223 72.313244
5975 2 2.819396 56.363483 72.739334
5976 5 3.453944 55.587218 72.878214
5977 2 20.397112 52.070904 67.957198
5978 2 19.529458 51.16661 68.97765
5979 5 19.540577 52.027053 68.444696
5980 2 8.72942 26.722025 70.622726
5981 2 10.102564 26.925185 71.450432
5982 5 9.14487 26.602919 71.509544
5983 2 19.361862 13.917851 62.891029
5984 2 19.449869 14.264259 64.467148
5985 5 18.894843 14.377735 63.628341
5986 2 25.124104 48.335277 66.455143
5987 2 25.703303 47.443394 65.238193
5988 5 25.051615 47.456583 66.012567
5989 2 17.392132 33.53411 72.718784
5990 2 17.233248 32.61975 74.041886
5991 5 17.774165 33.359044 73.611328
5992 2 34.649395 26.682348 72.894348
5993 2 33.937342 25.943644 71.645672
5994 5 34.570087 25.817909 72.425641
5995 2 31.910548 18.116869 56.045571
5996 2 32.939099 18.086299 57.291783
5997 5 32.657989 17.610782 56.443615
5998 2 16.429426 24.532286 64.185544
5999 2 17.301302 23.189523 63.964827
6000 5 16.362994 23.568581 63.985317
6001 2 1.890253 31.824384 71.568976
6002 2 1.809577 31.081301 70.136071
6003 5 2.267209 31.818452 70.657329
6004 2 11.405301 24.672606 69.48053
6005 2 11.207747 24.147598 70.996193
6006 5 10.911155 24.838143 70.318175
6007 2 12.926095 18.976352 72.716107
6008 2 13.210443 19.866368 71.397428
6009 5 13.643861 19.372146 72.167117
6010 2 29.890432 54.694583 59.603653
6011 2 29.000621 55.83815 60.319465
6012 5 29.94294 55.499429 60.171717
6013 2 2.766614 12.626015 69.894766
6014 2 2.767633 12.144499 71.437503
6015 5 3.233708 12.048627 70.544133
6016 2 10.980381 18.559551 68.259043
6017 2 11.998976 19.809558 68.367862
6018 5 11.167436 19.461994 67.907137
6019 2 17.810091 41.251549 74.042753
6020 2 17.115952 40.996293 72.605773
6021 5 17.01825 41.468404 73.495768
6022 2 35.13725 51.59127 68.848886
6023 2 35.834799 51.746256 67.3993
6024 5 35.788313 51.176512 68.23462
6025 2 8.680644 13.866783 64.459826
6026 2 9.708597 13.712949 63.222271
6027 5 9.157682 13.206237 63.903639
6028 2 9.488353 21.098195 60.455926
6029 2 10.972074 21.369416 59.875491
6030 5 10.205155 20.709323 59.900765
6031 2 34.888217 27.799534 61.607818
6032 2 35.295051 27.804291 60.043734
6033 5 35.605037 27.556834 60.97497
6034 2 28.605099 18.899786 63.605688
6035 2 29.9241 18.991214 62.676294
6036 5 29.582188 19.034058 63.628023
6037 2 13.903507 14.488698 59.196046
6038 2 12.377535 14.039373 58.910719
6039 5 13.20092 14.464908 58.503922
6040 2 11.382796 5.81519 66.738855
6041 2 12.033554 4.406426 67.190292
6042 5 11.244482 4.838489 66.726381
6043 2 14.6845 44.538554 71.828006
6044 2 14.48417 45.076516 70.317258
6045 5 14.970067 45.235484 71.190848
6046 2 11.294424 3.822835 64.769316
6047 2 11.163415 2.76859 65.987224
6048 5 11.809663 3.209039 65.344655
6049 2 20.822797 45.020944 67.728694
6050 2 22.40635 44.768138 67.527836
6051 5 21.669877 44.877399 68.213545
6052 2 27.356123 2.844928 68.382549
6053 2 28.161596 4.221404 68.120971
6054 5 28.106969 3.397127 68.705873
6055 2 14.525446 33.905747 60.220777
6056 2 13.71348 34.415893 58.919871
6057 5 14.41742 34.666874 59.602516
6058 2 4.246722 3.115018 74.043397
6059 2 4.197832 2.889639 72.4438
6060 5 4.802654 2.907814 73.255211
6061 2 4.022805 35.926724 62.937167
6062 2 3.923332 34.637138 61.968162
6063 5 3.431276 35.187115 62.660935
6064 2 20.620801 30.456249 67.795496
6065 2 20.873037 29.914947 66.293742
6066 5 20.629786 29.642567 67.237758
6067 2 18.572186 10.528608 56.193341
6068 2 19.07108 10.010161 57.640481
6069 5 19.343456 10.14623 56.67517
6070 2 19.737805 9.126803 63.781498
6071 2 19.131361 8.084814 62.705217
6072 5 18.988607 8.507253 63.613894
6073 2 32.764555 5.506385 64.356105
6074 2 33.226232 5.961481 65.836523
6075 5 32.573557 6.143595 65.084606
6076 2 5.607245 28.391564 67.185074
6077 2 5.542969 28.613947 65.585602
6078 5 4.99249 28.566962 66.433714
6079 2 12.105551 31.213111 64.475831
6080 2 12.605575 30.375619 63.187236
6081 5 11.791877 30.719644 63.681269
6082 2 10.228889 5.992211 64.875906
6083 2 10.42441 7.483077 65.468348
6084 5 9.766207 6.723297 65.3499
6085 2 13.152178 27.18339 63.475846
6086 2 12.928831 28.353461 62.383626
6087 5 12.881191 27.355022 62.542926
6088 2 1.485129 33.560653 59.048464
6089 2 0.999281 34.296352 57.693993
6090 5 1.778465 34.165889 58.326748
6091 2 16.899677 5.756855 61.0873
6092 2 17.721884 5.300638 59.772867
6093 5 17.403046 6.097065 60.310057
6094 2 8.710523 37.061632 61.2377
6095 2 9.78805 37.510385 62.355488
6096 5 9.628984 36.903487 61.561196
6097 2 26.682309 32.635827 63.890586
6098 2 27.299905 31.847132 62.622347
6099 5 27.389274 32.671078 63.203426
6100 2 29.368262 7.104755 66.703489
6101 2 30.936878 6.743456 66.847724
6102 5 30.086498 6.534381 66.340113
6103 2 15.2877 4.174787 74.050395
6104 2 15.288796 4.849012 72.581615
6105 5 15.82172 4.729682 73.433835
6106 2 3.467941 11.52238 63.87893
6107 2 2.979405 12.840787 63.082041
6108 5 2.716671 11.905833 63.367279
6109 2 29.701266 49.916275 70.798265
6110 2 28.328854 49.685244 71.619853
6111 5 29.303691 49.945417 71.70066
6112 2 16.636932 51.857186 64.805878
6113 2 16.629234 52.116066 63.210629
6114 5 16.595522 52.563196 64.118079
6115 2 31.233305 24.086834 70.817571
6116 2 30.091532 23.025959 71.245116
6117 5 30.442102 23.598582 70.487665
6118 2 21.967764 4.044339 73.143229
6119 2 22.923447 4.150382 71.84426
6120 5 22.67131 4.591158 72.719858
6121 2 17.953483 18.45629 63.191514
6122 2 17.813616 18.520602 61.582726
6123 5 17.644687 19.022747 62.445188
6124 2 8.348546 6.365315 68.690023
6125 2 8.40417 6.90152 67.166446
6126 5 8.905368 6.862388 68.044965
6127 2 13.460641 4.67731 69.98539
6128 2 14.699963 5.531126 70.574437
6129 5 14.05352 4.776592 70.767611
6130 2 5.696725 3.033808 65.041385
6131 2 5.312257 4.359402 65.882147
6132 5 5.825584 4.011022 65.082363
6133 2 16.804361 4.591452 70.866898
6134 2 18.152752 3.737338 71.120326
6135 5 17.642885 4.290524 70.443164
6136 2 27.623746 44.51389 72.367854
6137 2 29.160825 44.434162 72.86073
6138 5 28.55206 44.717664 72.103393
6139 2 18.627386 15.43855 61.417893
6140 2 17.316733 14.776837 62.093334
6141 5 17.892458 15.6084 62.05371
6142 2 25.259198 4.136372 64.237545
6143 2 26.117395 4.45239 62.905056
6144 5 25.950487 3.771848 63.635487
6145 2 19.027583 22.99223 73.104807
6146 2 17.882328 23.640796 74.042703
6147 5 18.380226 23.734097 73.166393
6148 2 25.802351 40.0687 72.518337
6149 2 25.441272 40.584001 74.006954
6150 5 25.052465 40.291829 73.119265
6151 2 34.700019 47.655915 69.889616
6152 2 33.435699 47.091938 70.723476
6153 5 34.415371 46.947244 70.51411
6154 2 17.784661 1.316684 59.540025
6155 2 17.446798 1.000001 57.991653
6156 5 18.190039 1.069674 58.675221
6157 2 12.464102 32.753096 60.684896
6158 2 12.663908 32.491001 59.102721
6159 5 11.983709 32.536483 59.850911
6160 2 23.805794 44.179305 63.754117
6161 2 23.990741 42.577464 63.862726
6162 5 23.616855 43.327062 63.294536
6163 2 17.817845 39.150931 69.292319
6164 2 17.817673 39.691244 67.769178
6165 5 17.326107 39.719596 68.653535
6166 2 22.626852 29.639746 73.276718
6167 2 23.005194 30.421541 71.913799
6168 5 22.254707 30.201892 72.556489
6169 2 33.811237 18.010813 70.050104
6170 2 33.784295 16.978379 68.807022
6171 5 33.379909 17.191282 69.710168
6172 2 7.577294 4.88092 71.356053
6173 2 6.940874 4.20696 72.679927
6174 5 7.3054 5.065266 72.286279
6175 2 36.843041 33.537899 69.771587
6176 2 36.072533 34.42665 70.879889
6177 5 36.185943 33.492892 70.506044
6178 2 9.387602 32.438726 59.346422
6179 2 9.892077 32.602441 60.873052
6180 5 9.848191 33.051767 59.967123
6181 2 29.784856 38.954307 67.59877
6182 2 29.876485 39.91908 68.892105
6183 5 29.771544 39.898123 67.885588
6184 2 36.394246 52.951996 64.083097
6185 2 35.560742 52.722294 65.448529
6186 5 35.759345 52.344054 64.530913
6187 2 9.783202 34.726361 69.520829
6188 2 8.687176 33.832161 68.739145
6189 5 9.33619 34.603754 68.649979
6190 2 17.098892 39.700621 63.967894
6191 2 16.586841 39.949356 65.480452
6192 5 17.073162 39.304069 64.870842
6193 2 26.598527 15.49455 59.747759
6194 2 26.155738 17.037097 59.938501
6195 5 26.140149 16.117198 60.360484
6196 2 21.162505 50.233466 63.632907
6197 2 22.160823 50.782583 62.486728
6198 5 22.106617 50.252646 63.347399
6199 2 1.513976 1.726154 73.815703
6200 2 1.836464 3.064445 72.969019
6201 5 2.229363 2.365872 73.587204
6202 2 13.974222 43.44159 62.011319
6203 2 14.110379 45.028104 62.287596
6204 5 13.629337 44.325324 61.74058
6205 2 35.484841 15.856807 56.495168
6206 2 36.387768 16.357342 57.738584
6207 5 36.400088 16.117308 56.755345
6208 2 30.195413 28.166274 58.872147
6209 2 31.553013 28.454015 58.043883
6210 5 30.640027 28.018829 58.003926
6211 2 18.451993 54.367261 61.062768
6212 2 19.36099 54.298326 62.397259
6213 5 18.451121 54.085497 62.008198
6214 2 34.98953 17.881705 73.916262
6215 2 34.404574 18.350537 72.484508
6216 5 34.288214 17.695988 73.24776
6217 2 5.859955 48.272002 68.085849
6218 2 4.9295 49.026897 67.001284
6219 5 5.717277 49.13399 67.627754
6220 2 29.803765 42.10397 69.438622
6221 2 29.312181 42.181131 67.900998
6222 5 29.644586 42.723991 68.687978
6223 2 30.820675 49.133458 73.086825
6224 2 29.550166 49.427324 74.041469
6225 5 30.374892 49.834476 73.61888
6226 2 18.144324 30.873488 62.290583
6227 2 18.169784 29.390319 61.649133
6228 5 18.348827 30.36982 61.467341
6229 2 16.960715 14.565109 73.204019
6230 2 15.446122 14.821312 73.706276
6231 5 16.384782 14.588034 74.004648
6232 2 8.406794 51.730762 73.27854
6233 2 8.611249 51.5718 71.683289
6234 5 8.083568 52.049761 72.402757
6235 2 31.443238 55.678485 65.750496
6236 2 32.030846 55.684676 67.256011
6237 5 32.012663 56.185455 66.37657
6238 2 4.910713 33.272434 73.446758
6239 2 5.419012 34.728758 73.929097
6240 5 5.543728 33.731383 74.048331
6241 2 31.028872 21.762354 62.903249
6242 2 30.090752 23.060626 63.118458
6243 5 30.129238 22.127441 62.728315
6244 2 25.112544 44.075342 69.678997
6245 2 23.775467 44.873681 69.246821
6246 5 24.127349 44.054281 69.725664
6247 2 1.00016 54.368154 63.301949
6248 2 1.000219 55.980078 63.41855
6249 5 1.472653 55.133026 63.708092
6250 2 34.242184 16.41375 58.221708
6251 2 34.47335 14.815292 58.163487
6252 5 34.033405 15.565877 58.680786
6253 2 8.45626 14.594643 61.579232
6254 2 8.09742 15.361474 62.955859
6255 5 7.71306 14.833893 62.182262
6256 2 12.44343 23.315962 59.950025
6257 2 11.146718 24.140192 60.451101
6258 5 11.708601 23.313076 60.608242
6259 2 24.978607 8.548806 67.381348
6260 2 24.800945 7.744901 65.99064
6261 5 24.482623 7.81375 66.949003
6262 2 21.008713 46.236749 64.440807
6263 2 21.022675 47.104504 65.804149
6264 5 21.445605 46.32193 65.321205
6265 2 2.490786 41.926041 58.088915
6266 2 1.000042 42.235881 58.63074
6267 5 1.53331 41.782172 57.899781
6268 2 20.336876 20.305282 63.710323
6269 2 21.944503 20.224017 63.854642
6270 5 21.09293 20.547391 64.295982
6271 2 12.195212 35.638116 73.801084
6272 2 10.750391 35.6601 73.077272
6273 5 11.426411 36.217126 73.584466
6274 2 1.571995 40.049813 59.254989
6275 2 2.14172 38.543053 59.385304
6276 5 2.244401 39.423336 58.896341
6277 2 8.929357 38.525537 71.31265
6278 2 9.771988 37.174407 71.588904
6279 5 8.850093 37.545865 71.397446
6280 2 31.135504 33.798419 68.898619
6281 2 30.656893 33.433913 70.398606
6282 5 31.33514 33.950184 69.852738
6283 2 13.197239 7.671668 70.836681
6284 2 11.95697 7.862428 69.818233
6285 5 12.537411 8.326119 70.505697
6286 2 20.659123 56.178964 64.692879
6287 2 19.425979 56.568014 65.662359
6288 5 19.923807 56.824402 64.819175
6289 2 32.515171 10.864953 62.083767
6290 2 31.798214 10.96626 60.638912
6291 5 31.737235 11.24423 61.610273
6292 2 29.321025 9.567178 60.959971
6293 2 29.204417 8.41184 59.835919
6294 5 29.166281 8.601651 60.82942
6295 2 26.176639 28.461841 58.311438
6296 2 26.31821 28.829336 59.878857
6297 5 25.966441 29.150554 58.985769
6298 2 24.446539 9.31046 57.066202
6299 2 24.362641 8.947033 58.638709
6300 5 23.818377 9.128983 57.804924
6301 2 33.732701 40.243115 62.874441
6302 2 33.358885 41.277235 61.690062
6303 5 33.17633 40.356018 62.067635
6304 2 27.390716 15.364858 57.700734
6305 2 28.562797 16.265593 57.047434
6306 5 27.878328 16.217628 57.791565
6307 2 29.594754 45.227893 59.596136
6308 2 29.373726 43.627125 59.620307
6309 5 30.035476 44.370392 59.805152
6310 2 34.115939 17.68858 66.617035
6311 2 34.566846 18.744605 67.754308
6312 5 34.883464 18.20633 66.957727
6313 2 24.380843 28.075135 70.295232
6314 2 24.444626 28.766274 71.754737
6315 5 23.979336 28.061906 71.196258
6316 2 33.294795 29.500806 60.45054
6317 2 31.811137 30.049395 60.119322
6318 5 32.350446 29.228701 60.364548
6319 2 30.709308 52.842294 64.812172
6320 2 31.156689 52.524137 63.292132
6321 5 30.400115 52.858522 63.875493
6322 2 11.35525 5.577012 68.923928
6323 2 9.924188 4.834903 68.8089
6324 5 10.396154 5.668403 69.136091
6325 2 27.413957 22.280813 64.147014
6326 2 28.147475 23.703583 63.924368
6327 5 27.822238 22.863204 63.463378
6328 2 22.575177 15.137814 60.850626
6329 2 23.375561 14.25315 61.940878
6330 5 22.584838 14.264344 61.309088
6331 2 18.743974 19.636817 67.099201
6332 2 20.181145 19.365816 67.786947
6333 5 19.623577 19.213713 66.955978
6334 2 3.62001 14.65837 65.70932
6335 2 4.170532 13.607409 66.806728
6336 5 4.346412 14.496997 66.357031
6337 2 25.947097 48.800762 69.170385
6338 2 26.510246 49.730229 70.366566
6339 5 25.870912 49.693748 69.582699
6340 2 26.548205 37.441528 72.727331
6341 2 26.979243 38.47344 73.894061
6342 5 27.179821 38.165618 72.950905
6343 2 23.662638 14.880722 72.771334
6344 2 23.383639 15.391482 71.263627
6345 5 23.726595 15.664695 72.175912
6346 2 16.280687 47.814475 63.089916
6347 2 16.615763 49.369442 63.375745
6348 5 16.401454 48.479767 63.80827
6349 2 32.545108 30.367901 71.938693
6350 2 32.480585 29.771074 70.438183
6351 5 32.010131 29.801113 71.333894
6352 2 8.339767 35.448104 71.937343
6353 2 7.885932 34.625311 70.622451
6354 5 8.007472 35.550691 71.014149
6355 2 25.83568 37.208212 60.797566
6356 2 24.738457 36.088914 61.191486
6357 5 25.682624 36.41239 61.360125
6358 2 21.31744 54.106179 71.527071
6359 2 22.399781 53.258122 72.376326
6360 5 21.421928 53.328077 72.124458
6361 2 19.347643 14.604034 58.64367
6362 2 19.039499 14.52006 57.059407
6363 5 18.748462 14.937435 57.934405
6364 2 27.337067 31.364862 71.021403
6365 2 25.800344 31.326361 71.520295
6366 5 26.760529 31.444578 71.817946
6367 2 32.431814 39.524122 64.544264
6368 2 33.815209 39.505382 65.379586
6369 5 33.232873 38.981958 64.738151
6370 2 3.679862 11.587609 61.415668
6371 2 4.290222 10.127329 61.088656
6372 5 4.150063 10.817903 61.815285
6373 2 26.136637 16.176972 66.363358
6374 2 24.780251 17.043596 66.21819
6375 5 25.762672 17.004404 65.977692
6376 2 28.060894 26.029504 59.455428
6377 2 28.08377 27.640125 59.324003
6378 5 27.502465 26.838848 59.535112
6379 2 16.320178 46.416225 61.100299
6380 2 17.635828 47.29211 61.437622
6381 5 16.881705 47.159528 60.775618
6382 2 4.255036 46.833124 66.504695
6383 2 3.607402 47.481249 67.83601
6384 5 4.30491 46.83452 67.489957
6385 2 35.640771 11.246645 68.519227
6386 2 35.428815 10.98366 66.938781
6387 5 35.03609 11.425328 67.760501
6388 2 36.571667 15.556983 70.108892
6389 2 36.897322 15.705926 71.684855
6390 5 36.416943 15.145664 70.992129
6391 2 18.014343 19.771099 56.762628
6392 2 19.37971 20.632927 56.692483
6393 5 18.828806 19.922739 56.227011
6394 2 27.525292 25.059418 65.853552
6395 2 27.556644 24.245522 67.249434
6396 5 28.09469 24.835578 66.627447
6397 2 16.228191 33.689408 67.412535
6398 2 16.989143 32.894091 66.229184
6399 5 16.189831 33.474299 66.450513
6400 2 1.57261 30.588044 65.394306
6401 2 1.371149 29.141963 66.087241
6402 5 1.446424 29.628533 65.202871
6403 2 27.251709 16.658318 64.396709
6404 2 28.140418 17.027354 65.695133
6405 5 27.638777 17.410706 64.903978
6406 2 19.447435 3.880408 73.542193
6407 2 20.111832 3.424345 72.141308
6408 5 19.51909 3.12913 72.906836
6409 2 36.894255 18.582309 60.723791
6410 2 35.47681 18.845942 61.454027
6411 5 36.481659 18.864587 61.57427
6412 2 19.790928 35.888455 58.463503
6413 2 19.975982 36.95447 57.262977
6414 5 19.696019 36.84203 58.229158
6415 2 18.761884 49.455002 62.360413
6416 2 20.193564 49.815053 61.702728
6417 5 19.381845 50.198467 62.17031
6418 2 24.880109 40.972239 65.074279
6419 2 24.172318 41.137512 66.517751
6420 5 24.82183 41.558546 65.865531
6421 2 16.11521 34.917671 64.448394
6422 2 17.615387 34.550435 64.924318
6423 5 16.803159 35.119777 65.125971
6424 2 15.753871 34.620686 61.899581
6425 2 17.051937 35.421349 61.364923
6426 5 16.515755 35.177107 62.187955
6427 2 14.241655 26.605117 68.411012
6428 2 12.632749 26.461278 68.359741
6429 5 13.450564 26.756006 67.841242
6430 2 1.0001 17.104277 63.352555
6431 2 1.000026 16.957526 64.962015
6432 5 1.429826 17.431879 64.17793
6433 2 14.310655 6.874466 72.55759
6434 2 15.903698 7.144974 72.526983
6435 5 15.107276 6.980784 73.129711
6436 2 21.966648 18.08292 59.147815
6437 2 21.860893 16.47388 59.255985
6438 5 21.341518 17.323339 59.073789
6439 2 36.895312 55.407224 63.942118
6440 2 36.57653 55.644823 62.375651
6441 5 36.833054 54.953035 63.068581
6442 2 7.189461 55.650972 70.716908
6443 2 7.997204 56.43168 69.555038
6444 5 7.192288 56.470363 70.167525
6445 2 33.634394 36.402517 60.413205
6446 2 35.213597 36.073296 60.315102
6447 5 34.532868 36.805396 60.473734
6448 2 1.707791 5.727492 62.229884
6449 2 3.033612 4.80378 62.200706
6450 5 2.67558 5.724495 62.421216
6451 2 30.908743 26.895865 66.242223
6452 2 30.61156 28.382899 66.801066
6453 5 31.234027 27.827114 66.228209
6454 2 28.865928 7.909498 63.227459
6455 2 29.613977 7.872204 64.659565
6456 5 29.57927 8.334769 63.759923
6457 2 10.558004 18.881782 61.079511
6458 2 10.36866 18.989206 62.680918
6459 5 10.844671 19.383249 61.879251
6460 2 25.449464 12.715621 62.155918
6461 2 26.257234 12.635957 63.553436
6462 5 25.80535 12.090105 62.830682
6463 2 2.147882 11.914546 65.603794
6464 2 1.47949 10.716952 64.748858
6465 5 1.362597 11.319526 65.553698
6466 2 16.856857 18.866377 72.394853
6467 2 15.818618 17.971126 73.250703
6468 5 16.772515 18.034326 72.918119
6469 2 6.801304 19.637396 68.507746
6470 2 6.318291 19.932267 66.993928
6471 5 6.816334 20.312711 67.788751
6472 2 27.316419 48.17633 59.353256
6473 2 27.459726 46.589767 59.625611
6474 5 26.889731 47.302401 59.187677
6475 2 6.059832 9.209077 63.34942
6476 2 5.729105 10.785179 63.48513
6477 5 6.174834 9.995169 63.934282
6478 2 18.768199 55.877419 70.934728
6479 2 19.830653 55.764444 72.147298
6480 5 19.505161 55.328564 71.293722
6481 2 32.513757 45.683542 59.161954
6482 2 31.373549 46.454845 60.00866
6483 5 31.934328 45.613763 59.95733
6484 2 7.658624 54.021536 61.189962
6485 2 8.225455 52.606371 61.726529
6486 5 7.771503 53.07122 60.950404
6487 2 25.727778 34.122439 65.822485
6488 2 26.332283 35.615332 65.689284
6489 5 26.460991 34.709974 66.123207
6490 2 19.48904 39.262641 65.203754
6491 2 19.954661 40.103906 66.502741
6492 5 20.2513 39.431413 65.806835
6493 2 34.041451 25.78121 65.584313
6494 2 33.127355 26.735188 66.515039
6495 5 33.125657 26.127369 65.705668
6496 2 13.475333 2.926667 62.44452
6497 2 13.403315 1.454846 61.780854
6498 5 14.024304 2.156789 62.163185
6499 2 8.274726 41.881309 60.297606
6500 2 7.897632 41.080379 58.945494
6501 5 8.649404 41.316456 59.580816
6502 2 8.604287 8.41852 70.676951
6503 2 9.846438 7.460112 70.289123
6504 5 9.098313 8.03082 69.916124
6505 2 28.457354 4.611175 59.232941
6506 2 28.756129 4.123032 60.744346
6507 5 29.165315 4.536237 59.91588
6508 2 18.666059 22.12751 67.766991
6509 2 19.285292 22.100914 69.259552
6510 5 19.032152 21.531019 68.462265
6511 2 21.196651 27.808311 73.300529
6512 2 21.692006 27.663199 71.769039
6513 5 21.600259 27.181443 72.654489
6514 2 12.948478 1.884 68.422667
6515 2 13.126243 2.36912 66.891342
6516 5 13.187366 2.657967 67.859515
6517 2 18.748001 11.56332 72.660037
6518 2 17.924564 11.706754 74.043248
6519 5 18.695218 12.076351 73.501015
6520 2 29.779473 16.741444 62.173839
6521 2 29.439204 16.843926 63.750421
6522 5 30.187269 16.813341 63.069252
6523 2 5.068464 51.21182 67.291575
6524 2 5.748094 51.042463 68.74805
6525 5 5.687143 51.637361 67.931405
6526 2 10.349081 40.515685 58.434227
6527 2 10.299974 39.891995 59.924359
6528 5 10.761086 39.841305 59.02473
6529 2 28.700043 44.428678 69.708528
6530 2 30.071117 44.724111 70.511503
6531 5 29.333189 45.142463 69.959262
6532 2 8.120842 37.258947 67.730012
6533 2 8.592385 37.057939 69.262702
6534 5 8.794111 37.538169 68.394824
6535 2 31.118524 5.400967 74.129632
6536 2 31.202379 5.038964 72.556794
6537 5 30.934543 5.750066 73.225469
6538 2 28.162212 44.153868 66.311328
6539 2 26.749654 44.891989 66.043459
6540 5 27.195718 43.995707 66.192563
6541 2 33.864092 29.355887 63.501183
6542 2 32.657163 29.819925 62.531706
6543 5 33.639441 29.944322 62.741903
6544 2 19.442534 5.681848 57.285681
6545 2 19.189609 7.166182 56.69859
6546 5 18.741161 6.347329 57.089616
6547 2 28.372138 28.53493 66.358039
6548 2 29.300262 28.475589 65.036313
6549 5 28.414617 28.190183 65.434688
6550 2 36.152393 30.363779 57.18455
6551 2 36.785085 29.1325 58.018546
6552 5 36.468234 29.43255 57.105253
6553 2 33.307584 35.884082 71.353202
6554 2 32.694392 36.258137 72.80095
6555 5 32.464673 36.055756 71.836171
6556 2 18.57888 44.568175 67.461348
6557 2 17.542323 45.793601 67.272201
6558 5 18.122068 45.300331 67.939365
6559 2 17.640568 5.902996 73.055269
6560 2 18.277134 6.060838 71.578189
6561 5 18.284992 5.504305 72.42361
6562 2 28.069553 5.365941 64.131063
6563 2 28.293642 5.383509 65.731491
6564 5 27.675247 5.08123 64.989371
6565 2 4.292593 34.418359 56.543815
6566 2 4.191908 34.462713 58.156202
6567 5 3.727704 34.158534 57.309728
6568 2 7.203438 23.362494 60.29946
6569 2 8.809639 23.183795 60.29053
6570 5 7.944901 22.884499 59.85789
6571 2 33.514396 30.863311 57.283172
6572 2 33.682394 29.608454 58.287665
6573 5 33.993009 30.01036 57.412156
6574 2 32.030331 54.881361 72.701388
6575 2 31.55794 54.115879 74.044064
6576 5 32.116697 54.879266 73.684122
6577 2 4.505811 14.285493 63.730756
6578 2 4.781576 13.058635 64.745975
6579 5 5.092723 13.509734 63.894961
6580 2 19.247622 17.43657 71.876132
6581 2 20.318397 18.642182 71.767333
6582 5 20.121576 17.752214 72.2075
6583 2 8.86717 55.247105 74.043441
6584 2 8.437958 55.262601 72.485419
6585 5 8.532324 55.827907 73.319716
6586 2 22.790111 55.947847 72.531776
6587 2 24.006317 55.566575 73.525442
6588 5 23.313645 55.192065 72.889458
6589 2 22.065653 51.580579 70.930717
6590 2 21.790556 51.116024 69.407429
6591 5 21.875734 51.915445 70.022408
6592 2 35.212718 24.869953 68.954843
6593 2 35.431366 24.344085 70.467308
6594 5 35.895989 24.555773 69.593328
6595 2 10.972676 11.299818 63.413443
6596 2 10.873158 12.227205 62.093616
6597 5 11.255343 12.163121 63.028685
6598 2 35.273347 22.176147 70.132779
6599 2 34.33864 21.843733 71.4086
6600 5 34.574581 21.56404 70.464868
6601 2 19.159021 36.323613 73.28042
6602 2 17.850013 35.681487 72.583234
6603 5 18.262252 35.956626 73.465778
6604 2 6.763925 35.434901 68.587947
6605 2 6.708175 34.599214 67.20577
6606 5 7.267508 35.231342 67.764419
6607 2 17.615151 25.397718 57.095424
6608 2 17.093073 25.058572 58.586836
6609 5 17.230565 24.683468 57.656825
6610 2 22.374239 22.856869 69.97839
6611 2 20.91171 23.441609 70.340309
6612 5 21.490278 22.611075 70.340922
6613 2 22.247054 41.724916 56.764802
6614 2 21.703393 41.014411 58.110726
6615 5 22.471784 41.054866 57.453105
6616 2 19.146612 11.293274 68.134805
6617 2 18.648755 11.198927 66.600161
6618 5 18.880879 11.833831 67.353514
6619 2 36.8956 22.078643 71.854433
6620 2 35.941447 22.043943 73.158382
6621 5 36.687447 21.56458 72.670302
6622 2 6.366303 16.76458 67.732284
6623 2 5.258243 17.851394 67.2818
6624 5 6.012321 17.663839 67.930427
6625 2 13.459085 56.8445 72.861655
6626 2 14.252944 56.090249 74.050262
6627 5 14.360038 56.646026 73.211114
6628 2 33.752756 2.571409 58.62825
6629 2 35.024946 2.262955 59.576028
6630 5 34.06539 2.584871 59.56383
6631 2 21.982557 49.387383 73.91082
6632 2 22.324913 50.641169 72.950242
6633 5 22.058056 49.664937 72.96716
6634 2 9.750574 42.308001 62.173802
6635 2 9.422869 43.87676 61.965232
6636 5 10.083628 43.138453 61.758284
6637 2 6.642122 22.511579 69.214844
6638 2 7.114677 23.365478 70.503039
6639 5 6.807883 23.427936 69.540488
6640 2 24.377738 17.038651 61.300088
6641 2 23.977722 16.798934 59.752697
6642 5 23.624182 17.06232 60.663831
6643 2 4.844818 29.294938 70.900456
6644 2 5.037687 28.775377 69.382314
6645 5 5.025011 28.493365 70.35434
6646 2 26.090947 5.983123 66.392213
6647 2 26.239215 6.791858 67.783564
6648 5 25.788467 6.006701 67.330925
6649 2 33.99815 13.037937 69.463105
6650 2 33.708448 13.551459 67.958358
6651 5 33.548718 12.800253 68.617678
6652 2 36.349406 32.412955 59.699938
6653 2 36.895432 32.169104 58.198509
6654 5 36.544741 31.713921 59.031786
6655 2 6.057461 44.228862 69.998583
6656 2 7.625691 44.444181 69.672719
6657 5 6.895519 44.609049 70.354037
6658 2 36.673719 37.343703 58.83976
6659 2 35.282188 38.161383 58.756469
6660 5 35.76622 37.325722 58.453299
6661 2 13.351564 54.401624 60.821192
6662 2 13.683888 54.626995 59.255732
6663 5 13.921913 54.910761 60.197724
6664 2 16.555958 36.934736 57.923932
6665 2 16.610199 36.156245 59.339173
6666 5 16.112654 36.23624 58.461348
6667 2 27.77382 39.462237 70.851354
6668 2 26.896644 38.522045 69.872325
6669 5 26.892346 39.031769 70.746791
6670 2 34.748715 6.630407 59.961013
6671 2 34.834348 6.657563 58.347376
6672 5 34.288722 6.339299 59.138279
6673 2 23.862794 2.882304 73.457306
6674 2 25.097881 3.743195 74.044949
6675 5 24.544375 3.554458 73.218791
6676 2 6.401217 25.340341 68.533484
6677 2 5.760911 26.813907 68.708145
6678 5 6.07781 26.127756 68.03487
6679 2 25.604178 11.170657 73.931881
6680 2 26.170932 11.355009 72.429649
6681 5 26.393133 11.454598 73.412113
6682 2 28.876795 26.657583 57.523222
6683 2 28.812693 27.289443 56.037106
6684 5 28.743081 27.498504 57.025021
6685 2 32.742547 16.00778 73.648228
6686 2 31.3577 16.742006 74.041937
6687 5 31.766843 15.988678 73.503767
6688 2 15.849491 8.49201 68.052455
6689 2 16.2732 8.659386 66.501857
6690 5 16.618633 8.47354 67.434951
6691 2 23.306775 10.181667 60.120907
6692 2 22.939105 9.971151 61.680522
6693 5 23.657193 9.843189 60.978737
6694 2 8.317761 39.904481 64.116807
6695 2 9.17742 40.96354 64.983567
6696 5 8.484408 40.867367 64.252122
6697 2 10.544393 32.695729 74.043083
6698 2 9.690944 33.338584 72.830542
6699 5 10.373184 33.534165 73.552223
6700 2 7.700588 31.772391 63.460152
6701 2 8.004764 32.261454 61.950122
6702 5 8.426801 31.959888 62.8193
6703 2 4.476663 23.072012 69.429156
6704 2 3.401147 22.064225 68.766187
6705 5 3.520832 22.966536 69.208949
6706 2 27.445487 45.248884 68.098037
6707 2 26.13325 45.98861 68.683475
6708 5 26.786755 45.230092 68.832169
6709 2 4.652036 28.622674 57.078462
6710 2 3.584465 29.533493 56.27684
6711 5 4.54802 29.467455 56.579707
6712 2 34.782838 49.756198 62.921241
6713 2 34.974819 50.400265 61.451473
6714 5 34.889251 50.609686 62.438057
6715 2 14.409381 29.823223 60.545571
6716 2 14.850919 30.566834 59.180294
6717 5 14.509115 29.698383 59.572073
6718 2 29.586531 12.346808 63.122252
6719 2 29.670429 11.99607 61.546866
6720 5 29.126451 11.870323 62.391143
6721 2 25.429288 10.04591 63.856151
6722 2 26.025226 10.146085 65.355057
6723 5 25.928618 10.632343 64.47259
6724 2 25.537793 37.749628 57.19992
6725 2 25.991582 37.094967 58.606117
6726 5 26.170514 37.11347 57.610041
6727 2 33.511172 41.049282 71.288914
6728 2 34.702119 40.037616 71.701311
6729 5 34.361267 40.657488 70.977359
6730 2 4.467816 21.140495 70.477125
6731 2 5.378559 21.818201 71.627411
6732 5 5.377233 21.465395 70.6787
6733 2 0.998999 8.261901 71.161754
6734 2 1.426467 8.082594 69.613524
6735 5 1.736558 8.403425 70.52206
6736 2 21.280303 20.874536 60.810503
6737 2 21.347032 21.605273 62.250456
6738 5 21.565448 20.754608 61.747274
6739 2 27.550854 5.951774 69.332506
6740 2 28.074938 5.893611 70.8602
6741 5 28.095685 5.424389 69.96358
6742 2 34.212256 23.738249 67.348837
6743 2 33.363376 23.664255 65.975584
6744 5 34.296145 23.665114 66.36861
6745 2 34.278897 56.203625 67.678445
6746 2 35.347169 55.079788 68.134167
6747 5 35.237107 56.045569 67.851889
6748 2 15.239078 47.129853 59.313803
6749 2 14.411525 47.334091 57.940726
6750 5 14.974786 47.800642 58.640436
6751 2 6.068317 5.727948 59.642706
6752 2 5.208171 6.575696 58.568756
6753 5 5.833885 5.788819 58.686376
6754 2 4.677746 32.843497 68.922606
6755 2 3.750989 31.526696 69.060632
6756 5 4.198895 32.276343 69.572429
6757 2 1.000426 40.575706 68.908835
6758 2 1.565822 42.002099 68.401266
6759 5 1.626976 40.999603 68.275607
6760 2 7.598029 28.688598 61.364761
6761 2 7.59793 28.59437 59.751374
6762 5 7.142674 28.271091 60.595625
6763 2 12.817636 6.987409 63.738506
6764 2 13.261154 7.297781 65.261285
6765 5 13.600166 7.091104 64.33022
6766 2 12.32228 19.367446 65.962912
6767 2 12.781643 18.247691 67.033907
6768 5 12.417993 18.395321 66.100905
6769 2 22.735745 31.391387 60.925713
6770 2 22.32822 31.353577 59.362259
6771 5 22.749272 31.916394 60.090599
6772 2 29.177117 0.998994 61.617374
6773 2 28.398603 1.959641 60.576716
6774 5 29.211498 1.370118 60.703965
6775 2 33.765088 22.017798 63.397286
6776 2 34.625334 22.156732 64.758377
6777 5 34.015695 22.646074 64.115406
6778 2 5.876294 34.355504 60.99537
6779 2 6.451116 32.915911 60.538153
6780 5 5.76164 33.382824 61.113603
6781 2 29.270214 23.340592 68.294757
6782 2 29.364572 24.812743 68.95488
6783 5 28.874147 23.927701 68.981536
6784 2 16.565981 37.316015 64.077508
6785 2 17.439515 37.100181 62.73503
6786 5 17.189074 36.696586 63.628851
6787 2 9.663006 11.431594 60.317555
6788 2 9.268238 11.685072 58.77101
6789 5 9.218292 11.024785 59.536551
6790 2 20.397145 47.864096 60.079591
6791 2 21.335975 46.765649 59.355776
6792 5 20.553818 46.894682 59.985148
6793 2 31.500234 8.789519 60.974744
6794 2 30.970728 9.342669 62.39796
6795 5 31.142951 8.508944 61.850449
6796 2 27.117276 42.707224 68.321034
6797 2 25.804711 41.923331 67.797029
6798 5 26.281278 42.816234 67.808731
6799 2 14.123422 1.458294 59.587676
6800 2 15.341452 0.999999 58.629415
6801 5 14.663824 1.730273 58.80843
6802 2 17.54446 13.699271 65.614419
6803 2 18.014288 13.847315 67.153653
6804 5 17.308312 14.112522 66.47853
6805 2 19.820462 19.418957 61.656245
6806 2 19.964999 18.406811 60.40462
6807 5 19.65375 19.327251 60.688243
6808 2 19.147866 39.730695 58.401625
6809 2 20.048307 39.595626 59.736862
6810 5 19.464883 40.221732 59.196366
6811 2 26.022444 55.784517 69.405565
6812 2 26.647001 55.286858 70.810613
6813 5 26.042913 55.02957 70.040283
6814 2 26.660592 28.396766 70.63592
6815 2 26.574788 29.260272 71.999331
6816 5 26.442222 29.288784 70.996265
6817 2 7.787114 56.579217 62.765806
6818 2 7.67997 56.831564 64.358519
6819 5 7.162213 56.824166 63.488806
6820 2 5.514247 22.865288 57.191762
6821 2 5.977409 23.691009 58.501557
6822 5 6.213865 22.924043 57.884809
6823 2 29.084198 32.899478 65.949967
6824 2 28.026239 33.463917 67.033492
6825 5 28.195367 33.316486 66.046483
6826 2 30.170647 19.870803 59.745735
6827 2 30.334244 20.561723 61.197548
6828 5 30.565388 19.748154 60.641485
6829 2 14.763374 35.275026 66.531814
6830 2 15.12848 36.82947 66.78141
6831 5 15.083725 36.094934 66.086441
6832 2 23.631718 2.529248 59.73635
6833 2 22.138138 2.442557 59.125123
6834 5 22.754935 2.981152 59.720106
6835 2 3.327592 43.804486 66.995169
6836 2 4.464477 44.65868 67.763114
6837 5 3.541527 44.251879 67.847989
6838 2 11.458222 1.727492 60.790068
6839 2 10.626083 3.099723 60.980917
6840 5 10.996211 2.448461 60.300189
6841 2 24.441579 1.816707 57.138425
6842 2 24.071823 3.330164 57.568104
6843 5 23.73688 2.3753 57.544139
6844 2 7.348345 44.838894 62.453602
6845 2 6.47187 44.982415 61.103384
6846 5 7.36706 45.185197 61.530047
6847 2 29.724503 23.492266 66.010861
6848 2 28.954691 22.148554 66.473163
6849 5 29.049207 22.82993 65.730653
6850 2 30.983977 9.204225 72.878209
6851 2 31.479024 10.135617 71.653736
6852 5 31.785951 9.56835 72.43382
6853 2 16.527991 9.983115 62.278578
6854 2 16.059481 9.036266 61.05552
6855 5 16.073474 9.986838 61.403003
6856 2 20.39702 1.739598 63.206045
6857 2 19.683145 1.77174 61.756478
6858 5 19.752932 1.264259 62.629473
6859 2 13.818624 4.082025 65.713579
6860 2 14.433384 4.894134 66.968348
6861 5 14.16234 4.962701 65.995537
6862 2 5.276242 54.264127 67.493831
6863 2 5.015053 53.935748 69.05455
6864 5 5.716182 54.201488 68.374604
6865 2 4.509233 17.020439 69.402306
6866 2 2.907543 17.168496 69.245579
6867 5 3.802502 17.478234 68.888316
6868 2 5.919896 29.93761 59.282641
6869 2 6.025329 30.149077 60.88141
6870 5 5.469298 30.346744 60.059045
6871 2 15.253624 52.508788 70.17897
6872 2 16.072906 52.494547 71.571977
6873 5 15.630692 53.088863 70.882222
6874 2 3.140246 23.625278 62.040595
6875 2 3.520636 25.190098 62.176751
6876 5 3.576713 24.377831 61.575415
6877 2 25.516804 9.256873 72.473897
6878 2 25.181435 9.017488 74.036625
6879 5 25.925552 9.07287 73.352702
6880 2 12.803802 1.045097 72.022444
6881 2 13.310087 1.508646 70.559333
6882 5 13.606037 1.147967 71.457582
6883 2 13.612242 25.074506 62.739934
6884 2 12.018823 25.335306 62.66995
6885 5 12.7747 24.755783 62.327415
6886 2 31.207286 24.14891 73.029075
6887 2 32.196828 25.384948 73.352974
6888 5 31.771474 24.548654 73.732728
6889 2 36.894772 13.582131 67.717529
6890 2 35.706689 14.157885 68.649657
6891 5 35.988195 13.388655 68.055042
6892 2 5.301299 46.385027 59.802008
6893 2 5.80413 45.566727 58.502223
6894 5 5.254388 45.509314 59.35017
6895 2 25.539175 39.212078 58.996721
6896 2 23.945375 39.382632 59.203135
6897 5 24.747316 39.705983 58.676958
6898 2 11.212587 49.446291 67.815576
6899 2 11.309137 50.531654 66.622026
6900 5 11.838137 50.029436 67.323784
6901 2 7.212197 24.144913 63.50265
6902 2 8.109791 24.108852 62.159177
6903 5 7.275589 24.495281 62.582621
6904 2 29.248055 52.787763 60.493244
6905 2 29.731035 52.441756 58.990278
6906 5 29.042279 52.234863 59.702555
6907 2 30.349244 12.279896 72.402234
6908 2 30.463492 12.426793 74.00762
6909 5 30.63471 12.88922 73.123667
6910 2 34.942597 14.234612 63.422664
6911 2 34.718635 13.764897 64.95273
6912 5 35.268441 13.613567 64.116465
6913 2 24.794841 30.568745 68.357118
6914 2 25.94422 31.150563 69.332982
6915 5 24.945406 31.091961 69.1798
6916 2 26.374291 47.714533 61.28605
6917 2 24.935859 47.367313 61.935854
6918 5 25.403974 47.713717 61.107965
6919 2 25.987251 15.014454 71.932751
6920 2 25.994923 13.871488 70.790182
6921 5 25.422246 14.557509 71.265516
6922 2 5.764688 4.503266 68.907127
6923 2 7.262083 4.493203 68.299177
6924 5 6.719663 4.532982 69.152831
6925 2 1.755953 32.135286 63.842976
6926 2 1.29286 32.546787 62.350291
6927 5 1.013868 32.066688 63.196574
6928 2 14.799018 20.439292 74.042831
6929 2 16.404059 20.250241 74.043344
6930 5 15.629599 20.717438 73.588958
6931 2 33.771428 43.871353 68.222381
6932 2 33.301843 43.862706 66.675995
6933 5 34.072583 44.059349 67.301949
6934 2 22.100914 47.761085 71.867126
6935 2 22.131401 47.019853 70.43132
6936 5 21.597081 47.147605 71.281443
6937 2 32.201739 27.162409 71.06088
6938 2 30.775981 27.919921 71.133585
6939 5 31.596122 27.760544 70.562188
6940 2 14.33684 16.867374 66.31384
6941 2 15.816886 16.238512 66.474741
6942 5 14.842701 16.127511 66.726075
6943 2 12.312453 18.021885 69.925234
6944 2 11.559084 17.924087 71.351686
6945 5 12.379547 17.639035 70.831962
6946 2 1.913007 43.727091 60.804989
6947 2 1.675879 42.135778 60.957921
6948 5 1.222673 43.022846 60.778361
6949 2 26.243348 45.532961 70.942293
6950 2 24.643532 45.67153 71.124737
6951 5 25.542194 45.991207 71.46347
6952 2 19.259902 25.128237 71.144988
6953 2 18.71863 24.078056 70.042247
6954 5 19.238014 24.936224 70.177578
6955 2 17.884758 43.51659 64.822307
6956 2 16.867435 44.306405 65.798597
6957 5 17.171806 43.390885 65.492477
6958 2 11.934933 13.19605 65.539713
6959 2 10.389367 12.740769 65.665567
6960 5 11.265816 12.55953 65.192792
6961 2 4.10453 47.652659 71.189761
6962 2 3.441251 48.305248 69.868366
6963 5 3.259154 47.996207 70.814865
6964 2 18.03974 2.928651 66.597666
6965 2 18.053441 3.726399 65.19221
6966 5 18.140557 3.824005 66.195909
6967 2 20.05355 38.850495 62.138445
6968 2 19.29844 40.026835 62.949573
6969 5 19.400892 39.584347 62.045009
6970 2 11.171819 5.225258 60.378282
6971 2 11.900126 6.244004 59.356705
6972 5 11.805142 5.272197 59.623345
6973 2 20.763538 44.647008 59.509937
6974 2 21.562012 43.516695 60.344639
6975 5 21.665763 44.338959 59.763567
6976 2 11.669614 27.854163 58.427622
6977 2 11.902776 28.387409 59.935328
6978 5 11.423339 28.568064 59.062384
6979 2 18.49866 51.893087 65.977618
6980 2 17.45855 50.795711 66.548436
6981 5 17.861061 51.710622 66.707965
6982 2 4.565947 56.503117 66.429973
6983 2 5.756534 56.412974 65.340812
6984 5 5.476808 56.821044 66.223851
6985 2 14.792335 28.131277 69.896606
6986 2 14.6822 27.472076 71.368075
6987 5 14.898008 27.287407 70.396554
6988 2 19.130453 1.008847 65.4033
6989 2 20.134238 2.255265 65.628583
6990 5 19.323274 1.932683 65.115937
6991 2 29.584971 34.655725 71.879019
6992 2 30.481905 35.643986 70.967567
6993 5 29.541937 35.312725 71.144356
6994 2 23.058257 5.184929 67.019644
6995 2 22.670752 4.818776 68.545314
6996 5 23.255083 5.403577 67.961283
6997 2 11.520289 33.852566 63.999847
6998 2 11.897436 32.761041 62.869259
6999 5 12.273217 33.459814 63.497775
7000 2 8.501538 43.125393 73.495371
7001 2 7.493721 41.986523 74.042341
7002 5 7.623475 42.983119 73.92198
7003 2 5.422195 22.99749 67.444381
7004 2 5.323902 23.362715 65.873125
7005 5 4.787258 23.159061 66.706831
7006 2 20.937469 42.586204 63.548301
7007 2 21.571898 44.008519 63.980059
7008 5 21.420499 43.375029 63.205272
7009 2 18.685018 18.575174 58.508555
7010 2 19.363565 18.002625 57.158127
7011 5 18.82283 17.755422 57.977286
7012 2 24.632649 45.187627 65.525809
7013 2 24.367838 45.643602 67.053505
7014 5 23.95051 45.55675 66.135452
7015 2 17.738818 42.414089 61.379466
7016 2 17.993648 41.795469 62.850611
7017 5 18.41308 41.96953 61.946008
7018 2 8.601294 39.257165 61.168171
7019 2 7.400804 38.576545 60.327056
7020 5 8.320257 38.994403 60.259764
7021 2 34.908358 2.982499 72.873464
7022 2 35.680338 3.830752 74.012064
7023 5 34.897185 3.215285 73.832066
7024 2 26.325596 27.678347 65.913678
7025 2 25.424226 29.014896 66.027984
7026 5 26.26603 28.620567 65.627487
7027 2 14.326853 9.495124 72.931278
7028 2 15.649667 9.941038 72.116895
7029 5 15.050516 9.159495 72.35085
7030 2 22.15367 50.905036 67.247149
7031 2 22.75579 50.809135 65.750436
7032 5 22.976389 50.722013 66.734445
7033 2 5.833646 30.806387 69.648609
7034 2 6.276815 32.218716 70.297317
7035 5 6.330056 31.21295 70.397952
7036 2 35.959991 18.150622 56.040682
7037 2 35.157906 18.251041 57.440136
7038 5 35.060011 18.109658 56.442662
7039 2 28.909706 14.447138 60.544086
7040 2 28.836351 14.753909 62.129143
7041 5 28.296038 14.696495 61.275156
7042 2 1.106388 27.676231 58.846343
7043 2 1.419658 28.1237 57.325314
7044 5 1.83625 27.840685 58.203313
7045 2 15.386277 38.690386 68.781007
7046 2 15.754278 38.892068 67.220304
7047 5 15.265948 39.294412 68.010355
7048 2 7.572286 29.355511 66.027093
7049 2 6.9221 30.263677 64.859023
7050 5 7.683301 30.196071 65.522747
7051 2 36.894557 13.657416 56.502661
7052 2 36.639288 14.188319 58.007611
7053 5 36.188929 13.880095 57.155144
7054 2 30.754984 13.518107 66.14862
7055 2 31.68826 12.417442 65.421001
7056 5 31.658641 13.122339 66.14679
7057 2 28.529624 40.647948 63.526481
7058 2 28.176594 40.810192 61.957742
7059 5 28.791987 41.118319 62.699953
7060 2 23.499911 43.404447 66.185727
7061 2 23.933737 43.076918 67.707705
7062 5 24.250791 43.454308 66.823634
7063 2 13.97962 13.498082 64.788081
7064 2 13.378139 12.162631 64.104937
7065 5 13.782048 13.072213 63.920422
7066 2 15.72916 41.424744 64.096171
7067 2 14.941563 41.349193 62.68696
7068 5 15.821383 41.586757 63.127421
7069 2 16.159375 55.363479 58.766142
7070 2 17.193314 54.225504 59.264017
7071 5 16.413113 54.417442 58.648408
7072 2 24.430446 47.440751 68.340998
7073 2 22.974144 46.740112 68.354639
7074 5 23.741649 47.056646 68.933664
7075 2 24.478111 38.141744 71.930576
7076 2 25.353576 37.30574 70.859804
7077 5 24.881836 38.184671 71.031468
7078 2 5.283143 18.621076 73.819964
7079 2 6.398366 19.786957 73.725654
7080 5 5.463604 19.56472 74.044022
7081 2 5.473197 49.527606 59.710604
7082 2 4.806246 50.260379 58.433844
7083 5 5.127375 49.372944 58.799715
7084 2 5.964664 42.493713 58.732195
7085 2 7.269525 43.362663 58.339562
7086 5 6.706039 43.024193 59.109269
7087 2 10.805891 11.375305 57.228926
7088 2 10.401345 9.987165 57.950941
7089 5 10.983629 10.40495 57.236148
7090 2 22.56332 42.306807 72.208044
7091 2 23.461149 42.274362 73.551452
7092 5 22.683162 41.841676 73.069741
7093 2 3.869563 40.120583 63.856274
7094 2 2.870234 39.248324 64.779531
7095 5 2.917958 39.957883 64.05927
7096 2 13.949517 39.566247 61.868758
7097 2 14.404933 39.644187 60.320075
7098 5 13.658084 39.852413 60.970756
7099 2 36.895425 49.826567 60.544834
7100 2 36.412413 48.286363 60.465035
7101 5 36.804105 48.99672 61.070426
7102 2 22.462996 37.720607 74.046084
7103 2 24.067113 37.917333 74.048366
7104 5 23.300739 37.402419 73.633562
7105 2 28.796617 3.190622 64.941139
7106 2 28.410361 2.775942 66.454659
7107 5 29.08159 2.640941 65.709171
7108 2 30.551951 15.670749 71.707304
7109 2 31.382147 16.064731 70.37785
7110 5 30.840987 15.335855 70.825525
7111 2 20.068446 35.501021 62.502243
7112 2 19.499383 35.177566 63.97989
7113 5 19.266115 35.207256 62.995394
7114 2 8.792248 46.424053 65.475724
7115 2 8.59353 45.754649 64.018224
7116 5 8.210672 46.4191 64.67887
7117 2 9.443863 9.774863 61.747952
7118 2 10.894559 9.06299 61.772708
7119 5 10.413864 9.95373 61.766265
7120 2 13.740603 24.087967 58.343547
7121 2 15.264441 23.736591 57.935688
7122 5 14.645732 24.470598 58.256562
7123 2 30.698576 48.519601 63.406222
7124 2 31.068592 47.365281 62.337331
7125 5 30.308379 47.834903 62.812787
7126 2 23.911066 9.946318 65.929847
7127 2 22.703886 8.947921 66.327104
7128 5 23.269012 9.293899 65.561952
7129 2 22.058122 43.919434 70.802262
7130 2 22.337225 45.041868 71.931039
7131 5 22.23127 44.881209 70.937314
7132 2 35.354089 42.95714 58.906967
7133 2 36.640322 43.04727 59.881328
7134 5 35.88109 42.45371 59.571842
7135 2 3.532228 45.279908 60.873842
7136 2 4.038147 44.321443 62.072711
7137 5 4.288557 44.724717 61.178736
7138 2 33.243095 12.072685 71.611562
7139 2 32.450772 11.625985 72.947443
7140 5 33.365987 11.799815 72.5516
7141 2 24.945802 31.696469 57.195549
7142 2 25.433701 31.713815 58.736181
7143 5 25.694319 31.948478 57.786687
7144 2 33.075665 45.073445 69.927657
7145 2 33.113387 43.703502 70.784236
7146 5 33.143544 44.713495 70.843659
7147 2 20.119181 30.602477 72.212364
7148 2 20.588583 31.158386 73.655459
7149 5 19.962255 31.315376 72.875976
7150 2 21.027956 11.214663 64.154588
7151 2 21.815468 9.811987 63.998959
7152 5 21.676562 10.617019 64.596585
7153 2 33.060475 6.307898 73.180012
7154 2 34.448063 6.293911 74.008445
7155 5 33.46778 6.043603 74.03878
7156 2 26.099279 22.789017 69.359323
7157 2 24.811103 23.671774 69.775544
7158 5 25.750986 23.408491 70.043556
7159 2 30.856129 26.214117 59.642193
7160 2 30.900773 25.66845 58.121617
7161 5 30.399808 25.620504 58.999833
7162 2 22.867142 54.089746 59.287404
7163 2 22.903979 53.146653 60.599316
7164 5 23.46115 53.539874 59.851343
7165 2 26.575068 49.6671 65.238648
7166 2 26.918779 49.554914 66.813822
7167 5 27.313692 49.549063 65.881869
7168 2 11.162333 31.386139 57.806107
7169 2 10.872593 30.441524 56.527182
7170 5 10.618535 30.626409 57.489367
7171 2 33.109575 53.006202 72.177513
7172 2 33.00312 52.410226 73.67597
7173 5 33.374403 53.166001 73.114295
7174 2 19.889605 51.884635 71.025799
7175 2 20.12824 50.627732 72.013293
7176 5 19.521759 51.412145 71.809811
7177 2 35.413567 36.280884 71.863179
7178 2 34.717733 35.288975 72.932677
7179 5 35.400642 36.02697 72.81638
7180 2 6.284764 42.143991 72.211974
7181 2 5.091542 42.025566 73.295531
7182 5 5.773717 41.50294 72.760715
7183 2 34.292519 32.39673 70.892643
7184 2 33.712803 32.514827 72.396597
7185 5 33.769455 32.975102 71.496895
7186 2 19.916435 6.382293 64.841007
7187 2 19.819727 5.277061 66.016169
7188 5 20.4549 5.791481 65.419131
7189 2 19.661328 26.5239 65.275945
7190 2 20.12385 27.783176 66.177163
7191 5 19.827445 26.815718 66.203565
7192 2 12.038979 8.62901 67.743376
7193 2 10.467993 8.31942 67.524165
7194 5 11.403464 7.947033 67.420485
7195 2 29.327654 16.844579 70.303869
7196 2 28.851881 17.070764 71.831735
7197 5 28.684823 17.33506 70.869048
7198 2 36.769397 24.039347 64.000871
7199 2 35.891652 24.651512 65.21195
7200 5 36.040286 23.834592 64.633091
7201 2 29.432185 50.110787 66.55204
7202 2 29.783596 51.055541 67.815308
7203 5 29.525809 51.050757 66.836507
7204 2 29.21966 28.108198 72.951262
7205 2 27.878633 27.510526 72.275739
7206 5 28.385533 27.618444 73.145183
7207 2 26.541986 12.077715 56.486625
7208 2 26.512976 10.952314 57.646162
7209 5 26.863628 11.175623 56.723284
7210 2 16.922669 34.898571 69.670375
7211 2 18.292942 35.022641 70.518228
7212 5 17.285488 34.952317 70.586184
7213 2 29.299731 15.76306 73.543906
7214 2 27.915834 14.95242 73.742868
7215 5 28.59769 15.264119 73.062837
7216 2 7.28878 8.705725 67.747737
7217 2 7.207864 9.323883 69.238787
7218 5 6.662201 9.013926 68.444617
7219 2 20.604725 9.150595 66.950793
7220 2 20.73629 8.324815 65.567799
7221 5 20.552216 9.235536 65.969336
7222 2 24.605283 21.267865 68.81954
7223 2 24.590659 21.576736 70.405819
7224 5 24.010639 21.440142 69.587623
7225 2 14.142162 44.788214 67.200836
7226 2 15.234081 43.653505 67.564214
7227 5 14.941447 44.320266 66.861133
7228 2 8.775751 36.249697 64.191533
7229 2 7.930838 37.45981 63.533017
7230 5 8.582441 37.214103 64.267571
7231 2 19.226284 8.925793 71.834501
7232 2 19.952142 9.758559 73.014131
7233 5 20.106851 9.203291 72.182103
7234 2 1.648695 38.510871 69.304685
7235 2 1.074667 37.043979 69.666092
7236 5 1.229448 37.706547 68.916709
7237 2 3.915017 37.343592 65.166918
7238 2 3.000265 36.043851 64.874003
7239 5 3.025046 37.05553 64.853544
7240 2 25.638067 32.741521 73.196222
7241 2 24.256301 33.462122 72.768025
7242 5 24.7518 33.017368 73.530391
7243 2 34.129335 6.275547 71.25839
7244 2 34.574215 5.045447 72.207511
7245 5 34.009659 5.308035 71.409481
7246 2 32.561078 53.989522 64.508711
7247 2 32.256395 54.525124 63.014658
7248 5 31.904158 54.482978 63.962646
7249 2 25.475518 26.462455 71.443681
7250 2 26.457156 25.345527 70.81063
7251 5 26.411968 26.282482 71.190893
7252 2 35.266568 52.398704 73.933093
7253 2 36.29884 51.600943 72.979212
7254 5 35.325229 51.70237 73.236739
7255 2 2.018486 44.070742 65.248033
7256 2 1.001258 43.043834 64.525119
7257 5 1.064109 43.892734 65.072793
7258 2 34.34288 33.822117 69.218309
7259 2 33.682345 35.286095 69.038431
7260 5 33.883877 34.549011 69.702222
7261 2 35.107075 17.405606 63.075098
7262 2 34.73275 16.287101 64.179961
7263 5 35.246572 17.143606 64.01591
7264 2 13.329465 36.362908 62.275576
7265 2 12.750736 37.73627 61.6504
7266 5 12.497431 36.833472 62.031608
7267 2 6.302094 6.428268 67.884994
7268 2 6.490691 6.264612 66.288265
7269 5 5.837041 6.167475 67.054968
7270 2 6.403525 17.014801 60.773114
7271 2 6.067778 18.527404 60.313549
7272 5 6.762656 17.93329 60.747945
7273 2 27.215882 8.120358 69.443706
7274 2 26.767551 7.996491 70.991463
7275 5 27.320125 8.532225 70.33406
7276 2 21.176509 23.315764 66.085837
7277 2 20.97435 24.123816 64.700889
7278 5 20.852626 23.228986 65.158043
7279 2 34.365434 20.809465 67.035559
7280 2 33.531386 20.402346 65.71249
7281 5 33.462159 20.804096 66.638952
7282 2 15.34345 46.088068 64.346673
7283 2 14.951985 46.579203 65.835779
7284 5 15.333145 45.81372 65.294227
7285 2 23.663371 29.337503 56.04607
7286 2 24.465349 28.259454 56.944145
7287 5 24.430497 28.717235 56.042064
7288 2 6.791462 54.563788 65.928887
7289 2 6.865029 53.161828 65.128266
7290 5 6.78557 53.584105 66.044725
7291 2 20.851467 11.370086 66.493405
7292 2 22.105281 11.339232 67.512667
7293 5 21.738613 11.76375 66.670131
7294 2 1.143129 49.463727 72.265959
7295 2 1.717252 49.724786 73.753953
7296 5 1.005097 49.993392 73.08671
7297 2 29.127749 42.102615 74.041317
7298 2 27.784466 42.997118 73.955563
7299 5 28.158386 42.061105 73.862868
7300 2 12.589226 53.125696 70.725115
7301 2 11.323102 52.182475 71.070309
7302 5 11.603311 53.09107 70.72323
7303 2 26.582768 30.18563 56.789341
7304 2 27.900697 29.515549 57.44199
7305 5 27.240897 30.279339 57.518255
7306 2 35.831499 31.319168 73.393669
7307 2 34.563169 30.51063 72.802483
7308 5 35.495705 30.845689 72.595991
7309 2 34.679904 49.719887 66.473633
7310 2 33.882739 50.02851 67.845193
7311 5 33.943114 49.405741 67.049554
7312 2 14.384161 22.99634 64.756622
7313 2 14.362262 24.601953 64.939447
7314 5 13.844663 23.805327 64.590152
7315 2 13.182651 42.267275 64.558328
7316 2 12.736559 40.787686 64.085342
7317 5 13.522056 41.361238 64.36563
7318 2 16.763043 26.289905 62.741109
7319 2 15.303987 26.801269 63.211809
7320 5 15.80326 26.061883 62.733728
7321 2 26.446832 29.132199 68.573508
7322 2 25.263093 28.071716 68.280192
7323 5 26.183727 28.379148 67.993059
7324 2 9.171877 50.21678 68.083662
7325 2 8.986056 51.031517 69.46698
7326 5 9.664814 50.64941 68.820598
7327 2 36.020845 28.963793 63.684735
7328 2 36.825854 28.828869 62.289868
7329 5 36.896207 29.118914 63.257056
7330 2 30.128759 1.343042 63.64764
7331 2 30.446582 0.999592 65.194549
7332 5 30.860288 1.228075 64.299467
7333 2 25.31904 23.684281 65.979397
7334 2 25.734937 24.351971 64.567619
7335 5 25.946524 23.609191 65.221864
7336 2 8.065432 26.541974 62.41586
7337 2 7.730099 25.9158 60.964188
7338 5 8.287977 26.601943 61.456638
7339 2 28.349966 53.186678 70.646664
7340 2 27.151279 52.114441 70.80589
7341 5 27.580516 52.783404 70.179175
7342 2 12.615654 43.396231 68.040545
7343 2 13.085697 43.317448 69.584808
7344 5 13.372758 43.159623 68.627094
7345 2 7.379092 34.474721 64.901398
7346 2 8.583131 33.710306 64.141229
7347 5 7.755658 33.583179 64.710136
7348 2 31.485713 40.258824 71.626771
7349 2 31.133641 39.044597 70.619998
7350 5 31.02099 39.390852 71.564426
7351 2 30.966295 9.598744 58.861703
7352 2 31.126107 9.051721 57.34938
7353 5 30.959302 8.780765 58.310258
7354 2 30.135901 21.325304 68.132701
7355 2 31.657326 20.833958 67.896613
7356 5 30.932688 21.458845 67.566549
7357 2 6.315065 48.529796 61.481219
7358 2 5.134767 49.42706 62.124421
7359 5 6.112067 49.41731 61.861141
7360 2 9.77115 38.027155 58.275352
7361 2 8.786903 39.163108 57.681411
7362 5 8.822498 38.260486 58.138066
7363 2 14.44191 53.450805 72.696572
7364 2 14.275896 52.580061 74.047919
7365 5 14.824415 53.298983 73.593161
7366 2 4.915968 31.974545 58.673935
7367 2 5.81905 32.368305 57.392806
7368 5 4.943532 31.95495 57.68799
7369 2 8.915026 20.805368 67.330298
7370 2 10.378491 21.459897 67.125951
7371 5 9.718931 21.114219 67.811526
7372 2 33.41883 9.49935 57.932661
7373 2 33.043956 10.793213 57.039753
7374 5 32.935827 10.359413 57.947857
7375 2 13.436824 42.491499 56.042483
7376 2 12.655734 42.051125 57.387052
7377 5 13.000717 41.72906 56.491626
7378 2 9.9477 12.552289 74.042874
7379 2 10.647387 13.410775 72.865871
7380 5 10.621488 13.250565 73.864965
7381 2 13.578082 32.271452 66.859555
7382 2 13.694577 33.691484 67.622335
7383 5 13.150022 32.842153 67.540948
7384 2 32.975389 38.253677 67.018865
7385 2 31.879991 39.43614 67.136253
7386 5 32.148895 38.610809 66.615633
7387 2 22.102785 48.221938 64.192475
7388 2 22.640918 48.112931 62.672466
7389 5 22.524087 47.610237 63.5432
7390 2 5.976337 18.187251 71.675485
7391 2 5.237061 19.612923 71.856658
7392 5 5.832412 19.064901 71.248582
7393 2 19.230846 26.701639 62.655088
7394 2 19.141164 27.947153 63.681026
7395 5 18.707296 27.507139 62.879357
7396 2 10.717699 45.653492 64.581788
7397 2 11.376908 47.099283 64.876795
7398 5 10.753804 46.587156 64.265244
7399 2 36.896435 47.625841 70.003175
7400 2 36.263676 47.633748 71.490269
7401 5 36.651883 47.046291 70.76314
7402 2 4.816048 20.967862 61.638597
7403 2 5.484424 21.088001 63.105135
7404 5 5.55637 21.38462 62.140061
7405 2 20.34492 47.695695 62.272439
7406 2 19.206591 47.576583 63.413454
7407 5 20.159435 47.862604 63.226885
7408 2 14.981462 49.6904 65.419505
7409 2 14.557913 51.142239 64.849709
7410 5 15.08882 50.303034 64.653747
7411 2 12.648972 15.918832 56.385387
7412 2 11.48182 15.397935 57.374487
7413 5 11.995845 16.21268 57.063848
7414 2 20.993728 16.571799 56.042344
7415 2 20.648737 15.955243 57.495869
7416 5 21.396742 16.172896 56.849615
7417 2 7.213317 25.093384 56.713373
7418 2 8.20979 23.832928 56.539629
7419 5 7.329989 24.234921 56.241504
7420 2 11.957481 39.163946 71.229514
7421 2 10.673424 39.367518 70.269488
7422 5 11.187876 38.696744 70.826201
7423 2 1.099305 18.389783 58.055431
7424 2 1.423727 17.011635 58.83476
7425 5 1.814062 17.737351 58.246965
7426 2 9.774271 21.979098 65.075297
7427 2 10.272686 20.90256 63.97778
7428 5 9.8004 21.015409 64.865889
7429 2 6.846274 22.823815 73.527807
7430 2 7.846585 22.391532 72.334323
7431 5 7.790211 22.630152 73.316367
7432 2 31.521546 24.790051 66.397405
7433 2 31.284558 24.310499 67.92245
7434 5 30.936209 24.907261 67.182818
7435 2 17.011985 42.518843 58.962314
7436 2 17.969266 41.741001 57.918058
7437 5 17.262527 41.623279 58.633033
7438 2 3.002034 20.075676 59.386685
7439 2 3.087078 19.781586 60.973561
7440 5 2.45675 19.938419 60.197276
7441 2 1.918394 46.662868 72.257022
7442 2 2.162711 45.11125 71.876645
7443 5 2.50537 46.054944 71.747985
7444 2 2.433107 28.689789 73.210196
7445 2 2.80187 29.063993 71.681837
7446 5 3.179715 28.755433 72.568714
7447 2 9.463078 16.747353 72.157683
7448 2 9.332105 17.895833 73.287168
7449 5 9.982929 17.31068 72.778689
7450 2 14.141949 38.166847 63.679777
7451 2 14.882848 38.283535 65.111332
7452 5 14.677154 38.770144 64.247949
7453 2 32.76421 31.668579 68.37688
7454 2 32.241103 31.888238 69.890157
7455 5 32.743076 32.315033 69.121784
7456 2 23.927404 19.209018 63.704178
7457 2 24.493171 19.232811 62.190495
7458 5 23.691722 19.437482 62.773862
7459 2 23.943228 50.696678 69.244714
7460 2 23.57241 52.143169 68.626611
7461 5 24.109458 51.664547 69.338669
7462 2 35.161133 13.092335 72.422064
7463 2 36.30247 11.993247 72.740267
7464 5 35.424957 12.385421 73.057596
7465 2 7.326968 18.910169 56.978085
7466 2 6.176132 18.988131 58.110071
7467 5 6.356248 19.021087 57.114582
7468 2 16.237799 31.899709 58.112357
7469 2 17.823352 32.172704 58.2653
7470 5 16.907576 32.413399 58.622997
7471 2 16.403003 29.584326 71.07359
7472 2 16.820201 30.099654 69.599724
7473 5 16.305149 30.333407 70.439134
7474 2 35.261328 44.135161 70.984712
7475 2 36.142638 44.997137 69.939634
7476 5 36.179147 44.432735 70.779065
7477 2 35.988594 0.975926 73.009476
7478 2 36.962642 2.255679 73.16872
7479 5 36.753016 1.445584 72.599219
7480 2 24.447669 52.212265 64.292788
7481 2 24.330884 53.448102 65.327661
7482 5 24.957587 52.945403 64.71198
7483 2 11.877925 47.526711 66.975572
7484 2 10.723995 46.395519 66.948263
7485 5 11.208646 47.064158 67.533551
7486 2 19.52367 38.310846 67.701649
7487 2 20.449333 37.348774 66.790901
7488 5 20.208456 37.601791 67.740895
7489 2 15.382343 42.834506 70.624284
7490 2 15.211149 41.686655 71.749016
7491 5 14.968051 41.95752 70.804526
7492 2 28.972989 14.723486 69.839998
7493 2 27.944545 15.26565 70.96261
7494 5 28.061467 15.075695 69.975303
7495 2 16.819454 54.942016 66.165118
7496 2 17.334678 56.36472 66.732878
7497 5 16.724469 55.918305 66.05991
7498 2 32.6264 26.234288 68.701912
7499 2 31.275047 25.845258 69.498403
7500 5 31.645368 26.338051 68.695567
7501 2 33.210208 9.064547 66.152539
7502 2 34.268853 8.208843 65.28137
7503 5 33.450468 8.149166 65.874001
7504 2 27.745005 11.7003 59.305322
7505 2 29.28601 11.258443 59.510167
7506 5 28.36685 11.262945 59.93402
7507 2 29.405811 48.058006 60.048218
7508 2 29.333479 46.823761 61.089037
7509 5 28.918351 47.7105 60.832343
7510 2 8.276849 1.606819 57.664379
7511 2 7.841731 1.911076 59.190811
7512 5 7.500769 1.661923 58.270922
7513 2 1.000988 35.345281 72.461677
7514 2 1.39872 34.218002 71.374044
7515 5 1.322049 35.21385 71.538164
7516 2 23.338206 54.466248 70.73654
7517 2 23.373924 54.275473 69.132101
7518 5 23.202115 53.808809 70.01371
7519 2 17.052858 26.797039 70.314113
7520 2 16.565382 27.331741 68.868999
7521 5 16.977622 27.60446 69.752294
7522 2 31.594066 35.978076 69.043272
7523 2 31.709613 37.589795 69.073378
7524 5 32.023493 36.732916 69.511288
7525 2 11.608413 53.84026 64.647673
7526 2 12.59929 52.570281 64.778874
7527 5 11.874022 52.994624 64.214563
7528 2 16.39908 39.676958 59.185403
7529 2 16.96524 39.667382 57.67171
7530 5 16.595078 39.090638 58.416609
7531 2 12.643892 17.652346 63.493116
7532 2 11.79591 17.40498 62.139738
7533 5 12.175238 16.961874 62.966959
7534 2 1.000287 12.881735 60.306762
7535 2 1.235753 12.261149 61.780303
7536 5 1.593189 12.914247 61.09457
7537 2 28.996604 4.880376 72.658714
7538 2 28.767128 3.421703 73.315608
7539 5 29.156733 4.342995 73.470386
7540 2 3.532201 26.724618 57.094054
7541 2 2.77218 25.375071 56.632553
7542 5 3.607278 25.741203 57.071969
7543 2 8.409975 32.492595 70.749322
7544 2 9.819937 32.399395 69.964964
7545 5 9.381466 32.377993 70.877002
7546 2 13.39541 12.311843 67.134108
7547 2 14.482107 11.586388 66.182952
7548 5 13.505899 11.836983 66.276477
7549 2 23.711986 21.239511 61.355594
7550 2 23.311453 20.949801 59.816913
7551 5 23.495219 20.521069 60.715216
7552 2 0.989869 53.748018 67.577721
7553 2 1.50345 53.370688 66.092543
7554 5 1.010916 53.025286 66.906568
7555 2 21.864487 39.577951 73.038294
7556 2 23.090488 39.908783 74.037977
7557 5 22.083061 39.913161 73.940009
7558 2 2.195325 36.367732 59.063842
7559 2 2.615212 36.042373 57.537496
7560 5 2.96832 36.265565 58.459465
7561 2 3.77153 43.15562 71.769433
7562 2 4.35228 41.799655 71.109141
7563 5 4.466675 42.803849 71.164238
7564 2 21.06372 15.863724 72.813477
7565 2 20.809349 15.477382 71.264952
7566 5 20.372959 15.569404 72.17359
7567 2 22.330751 8.741926 71.310134
7568 2 23.335661 9.011442 72.546828
7569 5 23.238726 9.051653 71.540094
7570 2 28.065153 38.518892 61.452351
7571 2 29.327612 38.632611 62.454928
7572 5 28.35564 38.359804 62.381619
7573 2 4.353949 54.741693 65.105642
7574 2 3.234322 55.86653 64.800561
7575 5 3.445129 54.877991 64.746895
7576 2 33.256629 50.145497 64.8477
7577 2 32.835994 48.653249 65.303943
7578 5 32.489015 49.533347 64.943997
7579 2 1.45261 50.366648 63.404891
7580 2 2.770089 50.222746 64.32979
7581 5 1.759217 50.273727 64.337944
7582 2 31.268237 50.493585 69.341747
7583 2 32.752589 51.105192 69.527574
7584 5 32.22837 50.277422 69.273568
7585 2 6.264267 8.861213 72.660989
7586 2 7.508388 9.711987 72.077685
7587 5 6.843305 8.977557 71.870793
7588 2 36.896558 20.665142 65.119038
7589 2 36.513892 21.063348 66.637885
7590 5 36.137959 20.810751 65.73268
7591 2 27.722455 42.062011 65.183784
7592 2 28.668932 43.071384 64.348772
7593 5 28.65355 42.370795 65.07916
7594 2 12.991731 40.419157 58.823187
7595 2 12.308081 39.880392 57.461478
7596 5 12.82137 39.60688 58.289882
7597 2 3.685896 1.754616 62.604295
7598 2 4.569219 2.991763 63.153025
7599 5 4.407726 2.381751 62.361613
7600 2 8.477808 15.981178 65.031539
7601 2 8.170565 16.623338 66.482445
7602 5 7.876737 16.59679 65.514206
7603 2 24.669567 48.541486 72.288943
7604 2 24.556375 47.886689 70.815741
7605 5 24.299119 47.776302 71.788449
7606 2 34.199116 5.308521 61.864989
7607 2 35.019306 4.542242 63.027745
7608 5 34.988218 5.375061 62.453311
7609 2 34.86694 41.633536 69.002333
7610 2 34.813598 41.480805 67.394314
7611 5 35.069475 42.097102 68.155387
7612 2 35.015958 20.14411 63.963532
7613 2 35.824339 21.184979 63.028114
7614 5 35.606331 20.207629 63.175715
7615 2 8.74513 27.711601 67.665509
7616 2 7.635349 27.960236 68.813754
7617 5 7.773891 27.763064 67.830668
7618 2 26.124981 48.023829 73.854005
7619 2 26.029645 46.41976 73.681472
7620 5 26.594412 47.177294 74.044386
7621 2 13.784534 39.502275 70.051929
7622 2 13.309158 40.34664 68.7585
7623 5 13.993165 40.294839 69.502797
7624 2 4.127002 33.492477 71.403331
7625 2 3.318805 34.386776 70.326788
7626 5 3.733262 34.38397 71.25023
7627 2 23.058942 24.811083 73.016257
7628 2 21.75103 24.508006 72.116586
7629 5 22.088045 24.97299 72.950096
7630 2 24.888354 14.962946 63.369962
7631 2 24.729521 15.244344 64.953465
7632 5 24.440696 14.645924 64.18992
7633 2 2.796807 36.786001 71.973453
7634 2 3.606933 36.345559 73.300707
7635 5 3.283616 37.13573 72.756995
7636 2 1.48924 22.074667 64.365284
7637 2 1.999775 21.885868 65.886995
7638 5 1.227475 22.192654 65.3091
7639 2 16.266973 0.99932 69.464132
7640 2 15.920061 1.004026 71.042588
7641 5 15.522773 0.99225 70.111701
7642 2 25.220261 46.385998 58.086262
7643 2 24.600123 47.31047 56.914649
7644 5 24.982307 46.398032 57.12894
7645 2 31.824721 28.756377 68.599143
7646 2 32.201955 29.777401 67.40453
7647 5 31.658992 29.664537 68.251277
7648 2 32.289954 41.911515 66.602537
7649 2 32.790065 41.831951 65.067788
7650 5 32.831435 41.37964 65.972349
7651 2 22.648622 22.300738 57.91886
7652 2 21.12154 22.32022 58.447573
7653 5 21.869279 22.886968 58.067824
7654 2 24.502908 14.274171 58.281962
7655 2 24.557774 14.679396 59.845508
7656 5 24.000522 14.724477 59.001728
7657 2 14.875032 28.891533 73.444361
7658 2 13.867932 29.314098 72.253108
7659 5 14.698505 29.58436 72.764611
7660 2 21.091778 52.353724 65.880106
7661 2 22.287159 52.769195 64.874948
7662 5 21.292933 52.845399 65.048828
7663 2 5.598355 38.545166 61.586302
7664 2 6.008219 38.452918 63.146879
7665 5 5.572815 39.03481 62.442356
7666 2 35.832286 31.063496 62.692858
7667 2 34.837611 32.141691 63.371101
7668 5 35.614187 31.51545 63.542212
7669 2 8.35998 50.984665 64.61583
7670 2 8.397815 50.787375 63.012228
7671 5 8.222494 50.324925 63.895364
7672 2 19.18201 37.092817 65.01392
7673 2 18.368787 36.770316 66.372801
7674 5 18.481103 36.515602 65.399645
7675 2 18.437082 22.419797 59.545865
7676 2 18.67749 21.041759 58.736476
7677 5 19.052423 21.654768 59.449338
7678 2 30.607788 29.996546 74.007283
7679 2 30.290122 30.536659 72.517564
7680 5 30.737759 30.760885 73.397263
7681 2 10.419403 22.150477 70.518368
7682 2 10.788006 22.614142 69.014692
7683 5 11.039218 21.987052 69.768467
7684 2 30.34418 44.925575 61.994995
7685 2 30.381745 43.928863 63.266627
7686 5 30.822729 44.731513 62.835567
7687 2 6.32047 9.020944 61.173457
7688 2 6.394267 7.407669 61.111861
7689 5 5.771517 8.201489 61.192852
7690 2 24.182894 16.621735 68.736797
7691 2 25.63952 15.965153 68.493823
7692 5 24.687506 16.007444 68.152636
7693 2 8.425124 20.650026 74.034807
7694 2 9.691656 20.304361 73.092305
7695 5 9.3993 20.494611 74.042494
7696 2 35.685965 47.574412 64.825927
7697 2 35.135802 46.056278 64.758946
7698 5 35.695174 46.751756 64.281515
7699 2 22.699432 39.712304 71.007652
7700 2 21.616946 40.75491 70.413435
7701 5 22.519558 40.324904 70.25559
7702 2 27.013197 25.085706 61.143066
7703 2 26.546321 24.390884 62.525507
7704 5 27.315059 24.49823 61.875856
7705 2 22.392172 17.399623 71.967283
7706 2 23.053763 17.816613 73.381607
7707 5 22.299265 18.011405 72.735607
7708 2 35.602995 52.411249 71.00468
7709 2 34.946347 53.470378 69.975624
7710 5 34.749007 52.817001 70.723075
7711 2 31.490184 3.009974 63.174829
7712 2 30.424551 3.745711 62.207869
7713 5 31.134913 3.02618 62.254639
7714 2 7.986822 42.926507 63.333534
7715 2 8.5688 43.072573 64.834155
7716 5 8.391938 43.564642 63.967486
7717 2 9.166508 26.137893 66.188114
7718 2 8.273309 27.325272 65.552329
7719 5 8.766897 26.465587 65.347781
7720 2 13.936866 16.551608 59.959621
7721 2 13.85062 17.3433 61.365921
7722 5 13.862327 17.450378 60.35948
7723 2 21.892596 56.622777 70.38686
7724 2 22.183931 56.568178 68.798138
7725 5 22.106004 56.013277 69.641073
7726 2 9.108743 40.682564 71.702958
7727 2 8.240112 39.957396 72.856867
7728 5 8.639261 40.837768 72.556614
7729 2 19.072006 33.587091 59.579193
7730 2 19.625838 33.482303 58.064537
7731 5 19.767858 33.171015 59.017143
7732 2 2.00276 19.394904 71.928517
7733 2 1.644805 19.719506 73.470722
7734 5 1.254835 19.495772 72.563863
7735 2 3.792561 10.403267 74.0441
7736 2 3.313763 8.920418 73.615372
7737 5 3.033211 9.890941 73.677848
7738 2 10.461365 50.921472 63.760873
7739 2 11.104085 50.697592 62.295035
7740 5 10.666923 50.23548 63.082352
7741 2 36.17591 34.570926 61.641429
7742 2 36.463303 36.08594 62.125199
7743 5 36.895266 35.211171 61.855543
7744 2 30.37221 20.676811 65.550359
7745 2 29.032487 20.889354 64.671801
7746 5 30.015863 21.118241 64.743273
7747 2 17.020476 45.923187 73.144598
7748 2 15.703288 45.660625 74.043471
7749 5 16.179648 45.408914 73.186587
7750 2 11.46213 55.818482 62.336065
7751 2 12.557968 54.743566 62.841622
7752 5 11.57392 54.8924 62.657165
7753 2 9.770061 52.63794 64.949579
7754 2 8.65663 53.021952 63.842916
7755 5 9.645533 53.041259 64.057919
7756 2 31.441617 18.230965 69.716457
7757 2 30.633188 19.506474 70.292143
7758 5 30.764264 18.506541 70.378636
7759 2 2.82371 56.721801 68.621188
7760 2 4.251759 55.974807 68.741905
7761 5 3.791101 56.831525 68.461982
7762 2 15.252567 8.629095 70.196668
7763 2 14.096605 9.161785 69.200732
7764 5 14.514419 9.278509 70.115245
7765 2 14.738478 2.953983 69.501741
7766 2 16.086185 3.517334 68.810209
7767 5 15.694133 3.138291 69.662939
7768 2 7.489568 11.725587 62.559833
7769 2 7.954769 12.485145 61.211294
7770 5 8.22383 12.247472 62.157679
7771 2 20.407839 3.917988 62.187596
7772 2 19.256458 4.475025 61.199706
7773 5 20.072432 3.879207 61.26065
7774 2 3.968261 51.411528 62.259052
7775 2 4.010661 50.783292 60.770624
7776 5 3.404287 51.151924 61.492391
7777 2 11.055813 26.46779 60.710508
7778 2 10.127119 27.74277 61.062427
7779 5 10.47238 26.855213 61.405303
7780 2 12.067451 53.169326 57.233214
7781 2 13.060013 54.188118 56.465894
7782 5 12.754599 53.862944 57.374471
7783 2 17.428599 3.043965 73.446487
7784 2 16.342534 2.949247 72.253429
7785 5 17.162502 2.514719 72.657613
7786 2 24.686827 12.082428 58.129564
7787 2 24.370293 11.739774 56.582215
7788 5 23.955471 11.919661 57.487803
7789 2 14.531571 21.186361 67.405942
7790 2 14.617037 19.606146 67.733832
7791 5 14.027869 20.427593 67.785134
7792 2 13.256598 21.821625 72.404927
7793 2 13.111153 23.427712 72.298988
7794 5 12.644281 22.574914 72.580579
7795 2 6.802333 44.82374 56.681837
7796 2 5.352144 44.50732 56.04252
7797 5 6.012278 44.238283 56.761108
7798 2 14.566106 22.125821 59.260949
7799 2 13.199007 21.758583 58.481158
7800 5 13.8454 21.455064 59.198501
7801 2 35.448304 24.979133 56.713185
7802 2 34.493621 24.748798 57.996704
7803 5 35.200023 24.324932 57.408605
7804 2 11.026764 55.186579 67.051606
7805 2 12.049688 53.947594 67.226079
7806 5 11.202588 54.258377 66.767426
7807 2 1.084784 52.691643 73.474008
7808 2 1.004857 52.504219 71.870767
7809 5 1.075204 53.182805 72.618497
7810 2 27.950654 49.778237 61.03621
7811 2 27.463438 51.276267 61.397349
7812 5 27.69262 50.644343 60.640597
7813 2 17.552675 1.327729 62.144214
7814 2 17.569124 1.979804 63.62287
7815 5 17.213934 2.083156 62.680699
7816 2 20.003528 56.504476 69.226256
7817 2 19.23114 56.21259 67.836971
7818 5 19.27371 56.822515 68.643634
7819 2 36.89565 2.181695 63.507367
7820 2 35.572197 1.973167 62.60355
7821 5 35.949095 2.444307 63.416263
7822 2 34.78018 21.196073 59.69358
7823 2 33.418268 21.536348 60.494394
7824 5 33.977835 20.790769 60.10003
7825 2 27.175817 52.881031 63.991745
7826 2 27.185349 51.270177 63.861537
7827 5 27.674493 52.120009 63.610434
7828 2 15.728272 12.074966 64.171529
7829 2 15.556236 12.677859 62.681959
7830 5 15.764865 11.842159 63.213567
7831 2 7.489043 21.992882 63.14292
7832 2 8.966423 22.089357 62.494894
7833 5 8.430635 22.206272 63.345653
7834 2 4.349532 48.699212 64.15965
7835 2 5.962491 48.619366 64.097335
7836 5 5.129351 48.178451 64.466115
7837 2 13.535378 39.18479 73.869112
7838 2 13.022225 37.662145 74.042673
7839 5 13.484003 38.309682 73.416587
7840 2 31.48021 15.367193 62.04338
7841 2 31.156381 15.44039 60.461713
7842 5 30.872802 15.030544 61.342699
7843 2 11.186896 13.441006 67.592583
7844 2 12.19893 13.096277 68.804542
7845 5 11.306 13.510897 68.569394
7846 2 30.479166 9.432779 66.14899
7847 2 30.075307 10.213127 64.792579
7848 5 30.784635 9.642179 65.234621
7849 2 18.051158 3.10669 57.807577
7850 2 16.984258 3.381593 58.989968
7851 5 17.088603 3.208733 57.998122
7852 2 13.251962 20.228656 64.165289
7853 2 12.865874 19.688756 62.691742
7854 5 12.931935 20.512433 63.27631
7855 2 15.989879 36.707896 72.012993
7856 2 15.389311 36.161886 73.410522
7857 5 15.365129 36.052459 72.404555
7858 2 14.117872 30.739738 70.596373
7859 2 14.335714 30.135264 69.113453
7860 5 13.719353 30.146562 69.916259
7861 2 13.174154 45.344663 65.305193
7862 2 12.681341 44.670311 63.921618
7863 5 13.486726 44.860613 64.504428
7864 2 7.668967 46.797355 58.119305
7865 2 7.695588 46.278541 59.649671
7866 5 8.188465 46.263039 58.765726
7867 2 27.81262 43.091872 58.165992
7868 2 28.035964 44.688962 58.059619
7869 5 28.264499 43.79546 57.642542
7870 2 3.166454 52.62972 64.867778
7871 2 1.807143 52.450958 64.012083
7872 5 2.817941 52.462063 63.96022
7873 2 29.282699 25.692134 72.584649
7874 2 29.636553 25.586683 71.011256
7875 5 29.573444 25.06799 71.878148
7876 2 25.809081 43.639077 64.498855
7877 2 25.899791 44.611725 63.211367
7878 5 26.436314 44.152301 63.936351
7879 2 10.293338 15.262945 70.058064
7880 2 10.501952 16.808032 69.632528
7881 5 10.600918 16.140656 70.387075
7882 2 7.496333 28.498532 72.236404
7883 2 7.923285 28.965396 70.749244
7884 5 8.269111 28.618558 71.63504
7885 2 33.438891 18.616638 63.840415
7886 2 31.862651 18.422554 63.540926
7887 5 32.606505 19.10304 63.631183
7888 2 32.953905 40.853462 58.144827
7889 2 33.808168 41.15141 59.48399
7890 5 33.074846 41.500307 58.879807
7891 2 33.1944 43.523073 74.042711
7892 2 32.342516 44.114327 72.803111
7893 5 32.277226 43.683801 73.716846
7894 2 29.896052 27.670708 68.755738
7895 2 28.936103 27.427563 70.032952
7896 5 29.33533 26.997018 69.208466
7897 2 16.969176 20.860043 70.852446
7898 2 17.06693 21.688706 72.236519
7899 5 16.436004 21.213842 71.603302
7900 2 28.017945 49.40756 68.713217
7901 2 28.275923 50.845723 69.403892
7902 5 27.766944 50.360878 68.67561
7903 2 23.773779 37.184455 66.08303
7904 2 24.389657 36.470915 67.395832
7905 5 24.554401 36.684277 66.420198
7906 2 11.67726 25.754512 72.444668
7907 2 12.530321 26.282562 73.711691
7908 5 12.083902 25.473569 73.298451
7909 2 8.858193 4.052904 66.521234
7910 2 8.224062 4.896152 65.297018
7911 5 8.728583 4.966281 66.1717
7912 2 9.485916 9.607746 64.719128
7913 2 8.854857 10.978627 64.1409
7914 5 9.071943 10.014654 63.921454
7915 2 14.665603 24.121202 60.428648
7916 2 16.080458 24.891259 60.559392
7917 5 15.170586 24.761772 60.98353
7918 2 1.25333 50.840357 61.152093
7919 2 1.541325 50.901575 59.563003
7920 5 1.669143 50.351388 60.402934
7921 2 24.986001 51.132749 72.963807
7922 2 24.771043 51.059903 71.363687
7923 5 24.42966 50.727869 72.25685
7924 2 17.16129 37.435112 68.085351
7925 2 17.642084 36.974365 69.557915
7926 5 17.800407 36.856693 68.565134
7927 2 1.70003 7.774274 64.505182
7928 2 1.135004 7.767847 62.991048
7929 5 1.128883 8.268635 63.870651
7930 2 21.947717 14.225805 73.978601
7931 2 20.3954 13.931902 73.638265
7932 5 21.235586 13.546949 74.051092
7933 2 13.73421 52.887588 62.915061
7934 2 13.659299 51.629911 61.902869
7935 5 13.722969 51.901911 62.875746
7936 2 15.696918 28.464608 61.82671
7937 2 16.736149 28.465856 63.064407
7938 5 16.156664 29.049597 62.474517
7939 2 14.287569 16.300731 57.802458
7940 2 15.554714 15.627894 57.058463
7941 5 14.800591 16.2958 56.959835
7942 2 26.923226 35.102726 58.56845
7943 2 25.78546 34.15997 59.223122
7944 5 26.727006 34.514099 59.335423
7945 2 11.357035 42.954919 63.543088
7946 2 10.727227 43.483938 64.934266
7947 5 10.745221 42.713286 64.278294
7948 2 35.417784 13.969884 59.955118
7949 2 35.249107 14.812938 61.323586
7950 5 34.778771 14.506566 60.481299
7951 2 15.970415 26.306397 66.807992
7952 2 15.583664 25.010374 67.692663
7953 5 16.081044 25.32808 66.870348
7954 2 31.668428 19.86807 57.538718
7955 2 32.119556 20.510615 58.951345
7956 5 32.316695 20.481563 57.958965
7957 2 32.946245 12.424719 63.625695
7958 2 33.406792 13.169098 62.267133
7959 5 33.682251 12.497843 62.972871
7960 2 26.983179 4.209969 72.083343
7961 2 27.001111 4.752992 73.605414
7962 5 26.507918 4.792199 72.722379
7963 2 4.297405 34.313578 65.272346
7964 2 5.598868 33.45247 65.692566
7965 5 5.259539 34.381947 65.479363
7966 2 17.37298 47.448695 68.712769
7967 2 17.59419 48.59847 67.598777
7968 5 17.793264 48.326854 68.553304
7969 2 20.947569 1.673733 70.521
7970 2 20.959986 1.086671 69.015311
7971 5 21.470076 1.125626 69.888706
7972 2 21.523384 18.890274 69.46292
7973 2 22.217535 19.858934 70.554592
7974 5 21.460726 19.778663 69.887266
7975 2 28.208047 6.517993 60.331881
7976 2 28.464499 6.205053 61.896553
7977 5 28.912822 6.422955 61.015615
7978 2 27.082362 26.702853 69.098842
7979 2 27.792114 26.818217 67.651486
7980 5 27.465588 26.173278 68.359978
7981 2 10.553292 29.33893 74.042689
7982 2 11.649941 29.073607 72.885598
7983 5 11.154593 29.788809 73.402942
7984 2 16.016075 43.923998 63.698851
7985 2 15.059813 43.369191 64.877683
7986 5 15.128656 43.533579 63.881308
7987 2 22.003135 49.28991 60.567221
7988 2 20.879886 49.960487 59.618256
7989 5 21.786194 49.509946 59.630337
7990 2 15.347114 36.739223 69.795225
7991 2 14.85943 35.508889 68.867681
7992 5 15.444986 36.33383 68.901184
7993 2 12.550169 41.769307 62.125294
7994 2 11.412659 41.4342 61.027263
7995 5 12.148819 42.081346 61.279847
7996 2 31.193947 26.317858 61.813548
7997 2 29.940061 25.398826 62.255191
7998 5 30.242465 26.347349 62.072475
7999 2 8.569193 2.480479 63.150795
8000 2 8.434522 2.780159 64.733183
8001 5 8.042715 2.977377 63.820977
8002 2 15.309597 44.440273 59.803939
8003 2 15.936795 44.080337 61.249264
8004 5 15.771627 43.732783 60.313073
8005 2 6.122545 42.082024 64.180219
8006 2 6.199658 40.480775 63.975397
8007 5 6.446514 41.375822 63.572309
8008 2 5.313919 6.890174 70.276037
8009 2 6.909931 6.801326 70.514256
8010 5 6.113597 7.425755 70.492597
8011 2 35.633068 8.410762 62.598984
8012 2 36.365184 9.848188 62.697517
8013 5 35.799102 9.250503 62.108577
8014 2 34.616542 37.817613 70.462971
8015 2 33.218388 38.421958 71.00318
8016 5 34.069814 37.94629 71.273995
8017 2 21.942697 21.146385 67.685569
8018 2 21.713113 20.161288 66.425105
8019 5 21.414596 21.02453 66.861257
8020 2 34.20575 44.855357 57.937786
8021 2 33.919128 44.681598 56.356789
8022 5 33.659405 45.194702 57.189733
8023 2 26.806306 19.203913 71.950459
8024 2 28.375232 19.463569 72.238459
8025 5 27.610023 18.814017 72.369088
8026 2 25.030462 18.314742 58.533461
8027 2 24.830284 18.802199 60.061274
8028 5 24.450871 18.851716 59.124193
8029 2 28.635567 53.688403 62.403953
8030 2 30.058663 54.454353 62.400263
8031 5 29.165501 54.377577 62.870257
8032 2 8.03349 8.079001 65.345718
8033 2 8.02269 7.393415 63.882246
8034 5 7.486136 7.538354 64.728194
8035 2 28.427122 46.872593 56.940282
8036 2 28.137443 45.560567 56.04219
8037 5 28.783957 46.322564 56.203147
8038 2 19.459363 7.65014 60.573764
8039 2 19.121509 6.893306 59.186338
8040 5 19.023257 7.76228 59.696002
8041 2 36.469232 1.008737 66.102895
8042 2 36.204142 2.521875 65.60086
8043 5 36.896079 1.786511 65.671501
8044 2 2.365253 26.863917 67.550354
8045 2 3.649538 27.74524 67.981374
8046 5 3.320917 27.017319 67.359549
8047 2 1.412254 48.145681 65.772694
8048 2 2.982857 48.51303 65.873474
8049 5 2.317173 47.753897 65.802002
8050 2 3.903914 32.126335 61.543502
8051 2 3.496958 30.978569 62.606007
8052 5 4.019767 31.17107 61.760938
8053 2 22.98729 54.776579 63.218032
8054 2 24.26278 53.860661 62.83578
8055 5 23.366569 53.870149 63.306145
8056 2 30.367867 11.491947 66.912694
8057 2 30.890681 11.299295 68.429746
8058 5 30.637459 11.981158 67.72585
8059 2 8.731092 22.950196 66.875217
8060 2 8.676156 22.932809 68.490326
8061 5 8.439846 23.466819 67.663574
8062 2 30.830166 8.920447 68.489899
8063 2 30.342995 9.691544 69.824054
8064 5 30.999543 9.014101 69.457252
8065 2 8.07322 53.054303 58.772105
8066 2 6.498967 52.771398 59.0036
8067 5 7.408806 52.33805 58.909099
8068 2 28.34178 9.942941 68.945902
8069 2 28.751241 10.065592 67.387315
8070 5 28.418424 9.433616 68.104508
8071 2 28.05185 33.292366 58.033892
8072 2 27.172981 33.249824 56.678283
8073 5 27.979744 32.860735 57.149739
8074 2 13.103406 30.714354 73.845348
8075 2 12.584684 31.097637 72.363485
8076 5 12.644452 31.4142 73.323038
8077 2 6.467905 47.471309 66.061135
8078 2 6.556724 46.317939 67.189737
8079 5 7.072372 47.049273 66.716677
8080 2 30.887609 49.464392 60.864358
8081 2 31.365267 49.849895 59.369324
8082 5 31.527116 49.227992 60.151353
8083 2 18.392287 19.18273 70.854176
8084 2 18.586845 19.544154 69.291034
8085 5 18.933705 19.717127 70.226071
8086 2 25.997304 41.289016 59.562656
8087 2 25.084178 40.556738 60.677045
8088 5 25.152833 41.361837 60.06743
8089 2 36.046583 22.865526 68.193068
8090 2 36.694206 23.35473 66.795513
8091 5 36.89735 22.950317 67.700891
8092 2 6.383022 2.420949 68.017692
8093 2 7.170886 2.645152 66.62453
8094 5 6.330532 2.871199 67.141477
8095 2 31.800658 51.340307 65.992218
8096 2 31.893267 51.646993 67.576283
8097 5 31.771608 50.918907 66.883739
8098 2 35.713663 17.421818 70.981971
8099 2 36.672928 17.71847 69.715596
8100 5 36.432102 18.012804 70.653625
8101 2 9.354867 40.140877 68.687444
8102 2 9.924556 40.585335 67.241827
8103 5 10.066521 39.963402 68.027685
8104 2 4.776443 8.011787 67.913225
8105 2 5.52647 8.274941 66.506062
8106 5 4.824795 8.628071 67.144403
8107 2 22.755809 30.883407 69.118708
8108 2 23.206596 32.290008 68.462843
8109 5 22.444477 31.630201 68.554259
8110 2 1.745851 35.152233 66.527032
8111 2 1.328651 33.624039 66.206932
8112 5 1.294269 34.359229 66.901799
8113 2 23.27579 8.774824 69.125763
8114 2 24.225973 7.467603 69.140626
8115 5 23.454835 7.931004 69.604451
8116 2 36.136148 11.912241 58.162213
8117 2 36.751838 11.474417 56.733532
8118 5 36.123562 11.201103 57.478579
8119 2 12.896381 26.790748 65.696128
8120 2 11.834008 25.663696 65.234597
8121 5 12.4256 25.976571 65.993974
8122 2 22.678774 41.151472 64.902265
8123 2 21.522495 41.586752 65.944113
8124 5 22.171239 41.925035 65.244668
8125 2 8.911757 17.464331 60.736535
8126 2 9.680044 16.820183 62.004093
8127 5 8.799472 16.857743 61.506388
8128 2 18.257545 21.032635 61.403802
8129 2 17.511906 21.329415 62.806599
8130 5 17.370462 21.116519 61.827213
8131 2 28.068617 40.502715 58.985376
8132 2 28.140657 41.785244 59.966102
8133 5 28.518892 40.863939 59.785376
8134 2 32.24912 46.292928 72.511824
8135 2 33.207084 47.194241 73.450884
8136 5 32.511828 47.221702 72.71577
8137 2 26.5558 20.601286 70.245441
8138 2 28.001178 19.890332 70.113824
8139 5 27.507425 20.689863 70.48997
8140 2 13.664502 22.64638 68.804005
8141 2 13.111051 22.484914 70.313811
8142 5 13.332065 21.988606 69.459787
8143 2 28.204469 14.894433 67.787353
8144 2 29.051154 14.884237 66.410794
8145 5 28.684823 15.472616 67.148452
8146 2 23.046421 4.838221 64.105127
8147 2 21.755767 4.0855 64.721179
8148 5 22.565033 4.650552 64.94553
8149 2 24.340242 56.700435 62.870472
8150 2 24.292686 55.702973 61.599762
8151 5 24.835349 55.984279 62.406553
8152 2 10.859723 45.827659 60.665617
8153 2 10.626278 45.694152 62.259221
8154 5 11.29691 45.569364 61.511419
8155 2 25.653781 20.810786 60.415913
8156 2 25.604257 20.69571 58.80464
8157 5 25.689609 21.337601 59.582598
8158 2 19.505128 10.507957 61.18409
8159 2 19.378219 11.015633 62.71316
8160 5 18.859617 10.687806 61.908107
8161 2 6.752913 42.828763 68.450793
8162 2 6.759265 43.997364 67.334448
8163 5 6.189774 43.293965 67.7877
8164 2 6.036656 4.989591 62.43825
8165 2 7.43064 5.066519 63.252366
8166 5 6.603165 4.507712 63.086394
8167 2 9.578879 55.046156 61.501127
8168 2 10.623443 53.965554 60.906919
8169 5 9.834365 54.09366 61.527784
8170 2 10.448547 18.00479 57.318345
8171 2 9.973045 17.632788 58.817481
8172 5 10.25624 17.250306 57.924152
8173 2 17.47422 9.294089 59.390482
8174 2 17.240661 8.812312 57.865609
8175 5 17.032804 8.608607 58.835056
8176 2 1.965772 2.426841 70.000392
8177 2 2.267244 2.908948 68.487586
8178 5 2.68223 2.728447 69.392977
8179 2 8.281431 6.645079 73.490339
8180 2 9.258297 7.574584 72.599469
8181 5 8.831305 6.65969 72.671403
8182 2 5.195523 13.056246 59.946212
8183 2 5.79883 12.074777 61.079629
8184 5 5.565246 13.034978 60.860588
8185 2 16.941576 13.662819 57.695619
8186 2 17.216097 12.497558 58.781299
8187 5 16.683177 13.336577 58.590061
8188 2 15.086144 20.497975 65.391399
8189 2 14.45512 19.018969 65.553403
8190 5 15.301708 19.567336 65.637722
8191 2 23.102922 45.190051 57.643735
8192 2 22.073302 45.997896 56.695491
8193 5 22.426389 45.908047 57.639835
8194 2 20.580921 20.978615 71.507067
8195 2 19.097999 21.61136 71.395385
8196 5 19.713047 21.049874 71.970691
8197 2 31.887673 53.071988 59.520699
8198 2 32.163097 52.357841 60.944086
8199 5 32.259965 53.219721 60.422256
8200 2 16.55948 50.959082 60.360929
8201 2 16.709588 51.91 59.062809
8202 5 16.601001 51.900543 60.069112
8203 2 8.495719 19.460374 61.557198
8204 2 8.468032 20.024951 63.07126
8205 5 8.057639 20.115633 62.150455
8206 2 21.920754 27.073451 57.210782
8207 2 20.900182 26.621129 56.042136
8208 5 21.442379 27.392952 56.409341
8209 2 6.260142 56.824254 72.329065
8210 2 5.734926 55.582982 73.220855
8211 5 6.075311 56.53564 73.254144
8212 2 12.692805 9.612832 58.37249
8213 2 13.493189 9.353969 56.992537
8214 5 12.932875 8.918369 57.714221
8215 2 12.479635 38.100872 68.865048
8216 2 12.078911 38.848505 67.489417
8217 5 11.839005 38.736377 68.466351
8218 2 22.131004 36.378265 72.080292
8219 2 21.323093 35.948495 73.412386
8220 5 22.118616 35.731702 72.825298
8221 2 3.178264 52.308234 67.043667
8222 2 2.833498 50.81907 66.518859
8223 5 2.878886 51.414812 67.335902
8224 2 20.032678 40.706395 74.016627
8225 2 20.166329 41.979144 73.029641
8226 5 20.573911 41.50939 73.828224
8227 2 3.402301 25.148779 68.912803
8228 2 4.25335 25.869916 70.082236
8229 5 4.312419 25.259413 69.27705
8230 2 25.210389 39.921086 56.53724
8231 2 24.676873 41.364154 56.042457
8232 5 24.50602 40.596869 56.680117
8233 2 29.704513 31.538054 69.828898
8234 2 30.567351 31.716171 68.474025
8235 5 29.721801 31.321812 68.86652
8236 2 9.885852 2.471729 72.827989
8237 2 11.407284 2.176918 73.286493
8238 5 10.693175 1.950026 72.605982
8239 2 33.759097 34.590189 59.003304
8240 2 34.786739 33.930127 60.061682
8241 5 34.30733 33.789588 59.181374
8242 2 20.465251 33.971515 73.883427
8243 2 22.025581 33.581924 74.04307
8244 5 21.139119 33.289232 73.651861
8245 2 8.78111 48.197578 59.899251
8246 2 10.177971 48.146389 60.710456
8247 5 9.712148 48.523737 59.894892
8248 2 25.382895 9.323621 69.445395
8249 2 24.903227 10.514421 70.427134
8250 5 25.024916 9.512937 70.344974
8251 2 32.777293 10.576951 69.695676
8252 2 33.059026 9.64393 68.406492
8253 5 33.093348 9.684857 69.417271
8254 2 1.025189 38.920075 57.118608
8255 2 1.00023 37.337169 56.793521
8256 5 1.076513 38.025622 57.531586
8257 2 36.232761 48.986642 67.848748
8258 2 36.76706 47.947473 66.732259
8259 5 36.839216 48.222162 67.703787
8260 2 31.568522 18.115419 72.364491
8261 2 30.143238 18.313474 73.100176
8262 5 30.858475 18.774187 72.55181
8263 2 21.451215 38.456677 63.790609
8264 2 21.457975 40.016922 63.36932
8265 5 21.669568 39.36325 64.112602
8266 2 23.922957 24.019 62.225098
8267 2 23.76456 23.644299 60.660999
8268 5 23.463631 23.410749 61.598775
8269 2 12.542107 55.295485 71.063174
8270 2 12.71001 54.798701 72.59187
8271 5 13.202333 54.985492 71.727431
8272 2 11.322516 23.550468 74.041503
8273 2 10.297963 23.309161 72.815144
8274 5 10.464925 23.128585 73.797001
8275 2 28.500102 48.107169 64.331752
8276 2 28.042636 48.382227 62.806313
8277 5 28.027649 48.748519 63.749782
8278 2 32.514881 13.80977 74.041769
8279 2 32.440016 14.17699 72.469688
8280 5 33.050727 13.868315 73.215529
8281 2 32.898728 2.49308 68.613583
8282 2 33.345375 3.714474 67.654105
8283 5 32.625948 3.024074 67.828173
8284 2 8.429831 2.931187 69.317164
8285 2 8.760835 2.033225 68.01486
8286 5 8.848627 2.954754 68.424255
8287 2 2.914121 33.063142 67.629441
8288 2 1.799297 32.871581 68.783723
8289 5 2.151658 32.50317 67.909285
8290 2 12.613978 28.266044 69.628061
8291 2 12.301704 27.869694 71.163407
8292 5 12.666535 27.529775 70.282566
8293 2 10.570271 26.041494 57.612572
8294 2 10.30945 25.76086 56.042504
8295 5 9.893135 26.106174 56.898055
8296 2 13.644381 37.098953 57.721704
8297 2 13.230842 36.856849 59.265164
8298 5 13.190513 36.46955 58.330873
8299 2 16.319965 23.621009 69.230184
8300 2 15.597557 23.865991 70.654967
8301 5 15.461462 23.534315 69.708396
8302 2 10.613226 26.705684 69.197065
8303 2 10.744346 28.144871 68.473571
8304 5 10.514234 27.676628 69.340937
8305 2 25.300219 5.315345 70.953241
8306 2 24.969078 4.681393 69.503984
8307 5 25.543342 5.352821 69.997878
8308 2 8.557852 25.755609 68.653916
8309 2 8.758361 24.670125 69.834347
8310 5 9.16811 25.059388 68.99464
8311 2 15.312877 21.373409 62.949196
8312 2 15.911513 19.951233 63.429763
8313 5 15.113171 20.409128 63.008445
8314 2 18.428591 8.671291 66.064426
8315 2 18.754017 7.946806 67.471947
8316 5 18.786737 7.844188 66.465505
8317 2 8.257698 11.627216 69.512286
8318 2 7.092719 11.25614 70.569178
8319 5 8.046852 11.06185 70.292758
8320 2 24.434882 16.395251 57.639703
8321 2 24.39328 16.591745 56.036096
8322 5 23.903684 16.778599 56.902069
8323 2 25.212048 51.23671 66.335025
8324 2 25.22159 52.614542 67.179645
8325 5 25.201844 51.605006 67.250167
8326 2 28.052924 33.7896 70.559689
8327 2 28.169682 32.970602 69.171342
8328 5 28.384272 33.845877 69.63218
8329 2 19.732647 30.275743 69.859951
8330 2 18.587855 29.738945 70.866526
8331 5 18.953878 29.673658 69.925096
8332 2 29.64388 30.356446 66.89137
8333 2 30.850095 30.496678 65.824938
8334 5 30.132673 31.002728 66.32867
8335 2 21.219739 31.806229 70.394129
8336 2 21.834224 32.479689 71.728579
8337 5 22.062438 32.084036 70.825305
8338 2 29.833599 53.931882 72.089787
8339 2 29.394593 53.437876 73.564619
8340 5 29.993311 53.238578 72.7732
8341 2 27.00017 22.738274 71.728822
8342 2 27.991115 23.779673 70.990302
8343 5 27.64886 22.827104 70.990891
8344 2 20.001903 52.408348 63.322258
8345 2 21.266719 53.322001 62.901099
8346 5 20.762881 52.468104 62.6973
8347 2 27.674559 55.29757 68.037329
8348 2 28.512702 54.049011 68.629371
8349 5 27.582782 54.414051 68.466517
8350 2 17.414608 12.150855 60.944494
8351 2 17.739432 12.488647 62.491194
8352 5 17.940759 12.74309 61.532417
8353 2 10.646654 14.604438 61.37554
8354 2 11.542131 14.815467 62.704255
8355 5 11.232581 15.246377 61.842268
8356 2 28.241288 54.148727 66.249222
8357 2 29.734938 53.88572 66.807553
8358 5 29.107083 53.730242 66.028995
8359 2 4.410793 17.937793 64.322452
8360 2 3.211983 18.424207 63.353868
8361 5 3.59566 17.634182 63.857038
8362 2 16.022814 29.144472 67.746848
8363 2 14.6344 29.118964 66.920077
8364 5 15.629006 29.295166 66.854975
8365 2 7.983025 15.729142 59.755344
8366 2 8.274372 14.719674 58.527342
8367 5 8.538348 15.600625 58.950154
8368 2 2.76575 40.188534 71.343416
8369 2 1.744464 41.320084 71.880505
8370 5 2.070307 40.371794 72.018699
8371 2 26.776717 38.858313 64.149528
8372 2 26.44364 39.873868 62.937257
8373 5 26.290385 39.685333 63.919852
8374 2 21.882272 48.918868 69.34912
8375 2 20.632887 49.437359 70.233484
8376 5 20.898055 48.904237 69.414952
8377 2 10.301724 4.002354 71.280006
8378 2 11.444071 3.643199 70.194673
8379 5 10.478963 3.487742 70.45721
8380 2 13.744223 13.44428 73.922477
8381 2 13.30782 13.150268 72.394405
8382 5 14.032209 13.006553 73.0866
8383 2 17.015145 29.799695 65.222726
8384 2 16.659964 30.653415 63.897243
8385 5 17.227538 30.630513 64.735016
8386 2 33.242254 48.464237 58.378079
8387 2 34.168425 49.230907 59.458041
8388 5 33.449446 48.528217 59.340477
8389 2 29.273635 7.579281 69.995051
8390 2 29.607671 6.530843 68.811373
8391 5 29.270658 7.463222 69.015381
8392 2 22.238873 13.358356 59.334764
8393 2 22.412515 13.803633 57.790914
8394 5 21.948731 14.020972 58.663953
8395 2 30.804976 45.950238 68.381119
8396 2 29.768608 45.094009 67.484063
8397 5 29.945397 45.999894 67.899569
8398 2 29.949743 33.534485 63.184322
8399 2 29.616264 31.969902 63.414037
8400 5 29.49655 32.901789 63.790576
8401 2 36.897325 3.180358 70.363209
8402 2 36.449654 3.997301 71.683849
8403 5 36.140027 3.652127 70.784119
8404 2 15.635767 6.259562 64.280718
8405 2 15.415579 6.760384 65.801438
8406 5 15.873408 6.969431 64.923247
8407 2 35.516316 33.865683 64.690166
8408 2 35.954783 33.168734 66.080816
8409 5 35.268327 33.767883 65.639991
8410 2 6.153376 36.164729 63.425738
8411 2 5.758586 34.610665 63.223447
8412 5 6.481039 35.303524 63.073327
8413 2 14.395922 41.101067 66.364742
8414 2 13.314939 39.945304 66.036741
8415 5 14.301514 40.143954 66.145074
8416 2 3.982956 21.394218 65.071384
8417 2 3.565756 22.021159 63.641424
8418 5 4.13225 22.160724 64.468548
8419 2 13.46978 55.521192 65.020829
8420 2 13.215818 56.055221 66.524894
8421 5 12.813225 55.53285 65.757056
8422 2 4.881233 14.203949 69.864418
8423 2 4.550927 15.013303 68.505102
8424 5 4.214783 14.303768 69.143924
8425 2 31.390871 48.598619 68.061452
8426 2 30.735191 48.336612 66.607722
8427 5 30.768571 48.014495 67.566708
8428 2 27.280734 16.480306 62.204344
8429 2 26.921435 17.993547 61.765138
8430 5 27.677741 17.344813 61.943108
8431 2 8.798352 46.831984 61.809394
8432 2 7.506857 47.161318 62.723437
8433 5 8.200073 47.559521 62.10262
8434 2 3.450542 46.095738 58.236142
8435 2 3.002496 44.878036 57.272631
8436 5 3.785208 45.443727 57.575755
8437 2 26.450567 13.877883 68.638212
8438 2 24.858834 13.950489 68.90842
8439 5 25.595117 13.419893 68.460219
8440 2 31.313806 22.307018 59.942047
8441 2 30.502579 23.312361 60.913176
8442 5 31.22177 22.600924 60.879266
8443 2 36.167012 38.274164 60.767424
8444 2 36.894442 38.240511 62.210203
8445 5 36.851412 38.72061 61.320158
8446 2 31.925951 42.883279 69.124268
8447 2 31.422436 43.676657 67.809384
8448 5 31.647927 43.769491 68.79176
8449 2 25.930207 20.528356 64.120259
8450 2 24.773366 21.283883 63.281933
8451 5 25.396556 21.356911 64.07618
8452 2 6.791406 25.513935 65.171818
8453 2 6.979971 24.654288 66.527305
8454 5 7.34011 24.811442 65.594498
8455 2 21.030269 18.223845 63.869994
8456 2 19.850004 18.291185 64.971962
8457 5 20.608603 17.726874 64.610566
8458 2 11.878539 5.774938 71.049805
8459 2 11.294759 7.026571 71.889157
8460 5 11.485705 6.032951 71.917181
8461 2 15.798605 29.018398 57.46202
8462 2 15.442826 29.703545 56.042199
8463 5 16.029156 29.768905 56.864679
8464 2 10.793049 36.970123 67.675843
8465 2 10.775067 36.774797 69.280031
8466 5 10.835961 36.292959 68.391971
8467 2 24.945551 43.132631 72.174697
8468 2 25.324724 44.338097 73.182156
8469 5 25.501755 43.942095 72.267624
8470 2 31.086752 34.748984 64.949829
8471 2 30.697485 34.627245 66.513653
8472 5 30.904475 34.103062 65.672871
8473 2 33.413563 54.814203 69.148206
8474 2 32.86561 54.801371 70.668561
8475 5 32.908404 54.277217 69.803714
8476 2 21.994988 47.042164 74.042073
8477 2 20.695986 46.561098 73.209568
8478 5 21.086543 47.310595 73.766566
8479 2 8.176771 18.757021 67.019592
8480 2 9.299584 19.15566 65.927679
8481 5 8.341543 18.853504 66.051722
8482 2 11.954359 50.905772 69.337894
8483 2 11.617488 52.025426 68.222193
8484 5 12.207722 51.802378 69.013648
8485 2 1.493996 47.294551 69.705129
8486 2 1.000006 47.611402 68.199315
8487 5 1.300262 48.026234 69.072406
8488 2 36.03238 54.798021 66.004079
8489 2 36.764479 56.238668 65.98253
8490 5 36.89737 55.249338 66.150144
8491 2 21.67521 24.821605 57.04258
8492 2 22.914813 24.908207 58.075914
8493 5 22.654055 24.72282 57.11562
8494 2 23.501835 45.723369 62.216823
8495 2 22.548841 46.506463 61.172571
8496 5 23.248924 45.781298 61.265029
8497 2 29.847358 37.463491 60.411036
8498 2 30.347703 36.084619 61.089464
8499 5 30.471812 36.707659 60.301462
8500 2 19.89241 33.559999 70.141275
8501 2 19.254672 32.458951 71.137709
8502 5 19.675585 33.378037 71.086319
8503 2 25.271348 6.657133 59.923726
8504 2 25.269541 6.867802 58.321381
8505 5 25.464489 6.210178 59.065729
8506 2 10.158545 34.877933 66.136736
8507 2 8.775235 34.163532 66.570304
8508 5 9.208257 35.048757 66.339231
8509 2 32.288009 33.709839 63.427847
8510 2 31.604667 32.533329 64.300064
8511 5 32.434629 32.802861 63.787187
8512 2 7.983787 4.253018 60.585814
8513 2 7.585047 2.805526 61.183868
8514 5 7.299279 3.773739 61.110192
8515 2 23.068495 16.184969 63.176222
8516 2 21.639913 15.496787 62.864046
8517 5 22.103384 16.238517 63.373514
8518 2 13.266871 9.855251 61.40585
8519 2 14.186784 10.437826 62.600113
8520 5 13.579747 10.689117 61.830122
8521 2 1.078605 45.57676 62.982438
8522 2 1.338115 46.026801 64.512802
8523 5 1.001324 46.334606 63.609278
8524 2 12.540715 44.542193 71.33407
8525 2 12.81069 45.140001 72.811106
8526 5 12.211587 45.194367 71.997074
8527 2 8.055108 30.738257 60.105555
8528 2 7.56576 31.315513 58.677546
8529 5 8.155931 30.62904 59.130292
8530 2 14.836656 27.718482 65.2358
8531 2 15.103704 29.079093 64.405549
8532 5 14.387811 28.462836 64.769212
8533 2 5.579511 39.577202 71.681134
8534 2 6.869685 40.347454 71.086105
8535 5 6.533739 39.467283 71.456196
8536 2 14.350086 52.541749 59.039386
8537 2 13.806223 51.888106 57.665029
8538 5 13.541685 52.195366 58.592465
8539 2 3.191655 40.44515 60.69012
8540 2 4.094165 39.225709 60.133044
8541 5 4.00116 39.911365 60.871795
8542 2 27.930117 21.614186 68.539396
8543 2 26.924642 20.450689 68.042214
8544 5 27.878263 20.787748 68.003166
8545 2 26.462593 12.215435 65.95803
8546 2 27.306263 12.330884 67.331634
8547 5 26.653414 11.758548 66.811301
8548 2 30.181748 1.598051 57.709336
8549 2 29.516915 2.99163 58.186651
8550 5 29.391349 1.987833 58.152697
8551 2 1.097175 35.93092 63.768303
8552 2 1.475476 34.404437 64.140639
8553 5 0.998984 35.237283 64.462895
8554 2 33.609273 3.221148 64.09853
8555 2 34.05618 3.164973 65.65063
8556 5 34.026935 3.745725 64.822138
8557 2 1.060427 12.091283 68.373698
8558 2 2.547345 12.193918 67.748848
8559 5 1.87223 11.56879 68.170704
8560 2 28.150311 11.337376 64.809811
8561 2 28.826777 12.505395 65.698642
8562 5 28.536901 11.535607 65.695522
8563 2 22.407068 37.721907 67.721007
8564 2 22.010497 37.345619 69.241873
8565 5 22.53654 37.048147 68.42989
8566 2 31.596673 34.133106 61.230509
8567 2 33.177567 34.31862 61.51025
8568 5 32.360904 34.739964 61.085918
8569 2 4.559887 25.346137 66.647998
8570 2 4.095282 26.253745 65.39409
8571 5 4.649252 25.453276 65.671388
8572 2 20.023074 54.399791 73.862021
8573 2 21.122381 55.583212 73.916189
8574 5 20.974071 54.589979 74.042755
8575 2 18.149294 51.939193 61.631522
8576 2 18.848445 51.490704 60.245181
8577 5 18.855869 52.179856 60.986491
8578 2 36.895591 54.420335 70.404999
8579 2 36.895634 54.932239 71.937921
8580 5 36.313446 54.749113 71.130425
8581 2 14.882759 38.593231 71.742457
8582 2 15.554449 39.478503 72.915922
8583 5 15.603685 39.238917 71.933729
8584 2 25.289535 24.859462 59.452304
8585 2 25.011119 26.004814 58.346615
8586 5 25.731683 25.51085 58.857804
8587 2 33.885898 18.699268 59.177681
8588 2 33.42481 18.551276 60.71956
8589 5 33.994191 18.146109 59.987323
8590 2 2.745414 33.176456 73.075203
8591 2 2.125933 34.312123 74.043914
8592 5 2.728562 34.147678 73.24747
8593 2 2.160018 46.960573 61.231395
8594 2 0.999814 48.085136 61.26574
8595 5 1.18296 47.092127 61.195606
8596 2 10.394717 1.00106 69.057563
8597 2 11.126443 1.316664 70.463574
8598 5 11.0493 1.596371 69.493862
8599 2 30.430465 6.364544 63.247498
8600 2 30.276558 5.351177 64.497016
8601 5 30.659752 5.459601 63.56646
8602 2 5.25934 38.424608 57.750195
8603 2 3.950922 38.310506 56.80843
8604 5 4.327394 38.731731 57.64829
8605 2 20.617182 32.665574 67.821118
8606 2 19.327616 32.51436 66.858803
8607 5 19.704386 33.003685 67.660758
8608 2 36.895356 8.662127 69.28992
8609 2 36.724286 8.816877 67.690331
8610 5 36.473269 9.211825 68.587847
8611 2 31.511039 31.754371 61.963796
8612 2 30.819536 31.993378 60.522756
8613 5 30.718238 32.138069 61.519416
8614 2 30.726921 5.756379 70.535998
8615 2 31.953745 6.584916 71.184323
8616 5 30.956432 6.589722 71.011493
8617 2 11.57438 34.112373 68.403079
8618 2 12.609625 33.600894 69.533809
8619 5 11.642708 33.586307 69.234834
8620 2 30.2842 40.516288 58.519746
8621 2 30.955097 39.054405 58.676882
8622 5 30.95244 39.905109 58.128408
8623 2 3.675975 29.906443 67.576157
8624 2 2.788523 29.559807 68.881595
8625 5 2.749991 29.841662 67.910204
8626 2 26.517872 17.877405 56.974376
8627 2 26.590965 16.559801 56.041385
8628 5 26.958378 17.492727 56.179889
8629 2 19.549895 35.192752 67.812298
8630 2 19.833501 34.721448 66.292648
8631 5 20.240966 35.159607 67.109053
8632 2 7.475672 17.826525 69.566009
8633 2 8.877585 18.470627 69.084691
8634 5 8.418475 17.614155 69.36789
8635 2 21.44008 26.230191 63.85924
8636 2 21.851468 26.701708 65.349317
8637 5 22.134469 26.142526 64.554488
8638 2 33.613051 35.280065 64.263212
8639 2 34.327914 36.721513 64.415182
8640 5 33.442602 36.251697 64.273677
8641 2 10.501296 15.061532 64.771435
8642 2 10.034648 15.093988 66.318394
8643 5 10.835296 15.094092 65.699129
8644 2 23.149938 6.29592 61.319872
8645 2 23.084658 6.612102 59.736312
8646 5 23.067134 7.024887 60.660341
8647 2 14.530772 43.860597 57.830017
8648 2 16.050054 43.633283 57.328017
8649 5 15.093897 43.315797 57.230589
8650 2 7.448908 36.474791 59.394157
8651 2 6.95094 34.954532 59.164514
8652 5 7.734951 35.587809 59.070623
8653 2 20.265607 3.798669 68.399748
8654 2 19.030024 3.127807 69.196726
8655 5 19.379975 3.380539 68.2812
8656 2 33.269735 26.612811 57.910969
8657 2 33.740676 26.370682 59.437889
8658 5 33.984365 26.813319 58.560839
8659 2 6.239657 45.402041 64.914741
8660 2 5.660688 45.821303 63.465289
8661 5 6.028586 46.1751 64.339364
8662 2 3.024546 39.93157 74.00387
8663 2 4.639803 39.968677 74.042154
8664 5 3.828129 40.035384 73.441102
8665 2 35.268668 42.275189 72.15951
8666 2 35.145676 42.551108 73.747161
8667 5 35.491889 41.907149 73.047175
8668 2 5.912325 13.328962 68.121362
8669 2 7.4664 12.929702 67.928133
8670 5 6.744955 13.126597 68.610245
8671 2 22.618484 1.899525 71.93284
8672 2 23.824609 1.540842 70.918688
8673 5 23.477344 1.419397 71.861654
8674 2 14.581216 56.810863 68.083604
8675 2 15.998169 56.823734 68.86076
8676 5 15.558497 56.818092 67.949068
8677 2 18.290037 52.988161 69.9951
8678 2 18.264586 53.526168 71.518844
8679 5 17.77141 53.531169 70.634944
8680 2 32.697534 11.441708 67.114564
8681 2 33.752665 12.192325 66.147523
8682 5 33.328067 11.300609 66.369077
8683 2 3.673933 53.516183 61.693728
8684 2 4.993177 54.03578 60.918158
8685 5 3.988087 54.131709 60.989692
8686 2 28.273082 7.001818 72.74958
8687 2 28.871485 7.760791 74.044867
8688 5 28.536603 7.886359 73.09797
8689 2 12.341734 56.321006 69.127793
8690 2 13.488676 55.183317 69.082135
8691 5 12.555781 55.425676 68.773111
8692 2 27.760546 51.994122 65.917983
8693 2 27.575159 52.437811 67.460924
8694 5 27.404419 51.699755 66.789621
8695 2 11.458506 8.721717 63.969489
8696 2 12.200781 9.224043 65.314327
8697 5 11.6733 9.522762 64.503736
8698 2 9.548457 5.009035 61.934512
8699 2 9.650815 4.428382 63.439258
8700 5 10.149514 4.548183 62.566633
8701 2 2.394551 7.947721 60.640108
8702 2 3.618466 7.105671 60.003806
8703 5 2.920604 7.118781 60.736844
8704 2 36.012194 44.070241 56.041922
8705 2 36.895609 45.160686 56.843422
8706 5 36.088165 45.032283 56.246703
8707 2 32.334222 3.573536 73.987241
8708 2 32.452895 3.237673 72.410849
8709 5 32.869752 3.750122 73.177761
8710 2 9.646808 48.274254 66.561731
8711 2 9.871681 48.824808 65.058995
8712 5 10.310343 48.689139 65.961046
8713 2 21.748804 11.242825 58.989178
8714 2 21.974833 10.963541 57.413485
8715 5 22.075283 10.573541 58.342106
8716 2 4.961348 40.148272 65.762957
8717 2 5.048026 39.635132 67.293012
8718 5 5.196122 39.373361 66.326539
8719 2 18.965547 16.574055 63.714722
8720 2 19.553085 17.204555 62.347548
8721 5 19.68154 16.480036 63.042601
8722 2 7.631837 39.042452 69.498702
8723 2 7.086274 39.183388 67.983976
8724 5 7.214451 39.670046 68.862191
8725 2 9.737115 12.173016 71.291443
8726 2 10.344607 11.26412 70.101166
8727 5 10.089705 11.276086 71.080661
8728 2 1.38927 36.902899 61.818903
8729 2 1.148259 38.428508 61.343165
8730 5 0.998435 37.766033 62.093636
8731 2 35.168657 39.458726 68.86524
8732 2 34.898384 39.285329 67.281327
8733 5 35.128121 38.795001 68.136503
8734 2 30.512284 3.265223 70.089468
8735 2 29.43375 2.5462 71.054697
8736 5 30.262439 3.127031 71.033773
8737 2 23.554044 29.640518 64.834606
8738 2 23.238143 30.323704 63.404445
8739 5 23.189722 30.451659 64.407346
8740 2 6.002627 46.451808 74.042455
8741 2 5.863633 46.144339 72.461936
8742 5 6.230714 45.798342 73.339469
8743 2 30.220134 16.575828 68.272873
8744 2 30.915066 16.625387 66.814617
8745 5 30.204077 17.041022 67.403063
8746 2 13.967974 47.81054 67.620412
8747 2 15.255582 48.478572 68.332938
8748 5 14.279053 48.612804 68.10294
8749 2 22.405588 40.703329 67.754026
8750 2 22.442841 39.670806 66.511286
8751 5 21.965562 39.907307 67.371983
8752 2 10.378072 36.976525 65.515535
8753 2 11.137438 37.987854 64.509319
8754 5 10.801593 37.040264 64.62683
8755 2 1.000682 19.555869 67.713253
8756 2 1.67986 21.011909 67.888059
8757 5 1.569444 20.224005 67.262326
8758 2 15.079476 0.904836 73.07215
8759 2 15.615732 2.001986 74.130728
8760 5 15.819572 1.113853 73.69005
8761 2 22.188444 8.540916 59.174439
8762 2 20.688098 9.134589 59.266154
8763 5 21.234552 8.295127 59.120491
8764 2 14.037271 15.880854 64.247573
8765 2 12.990358 15.399433 65.380755
8766 5 13.110913 15.573385 64.39094
8767 2 8.786713 35.894383 74.041081
8768 2 8.195828 37.398599 74.031937
8769 5 8.983398 36.821112 73.765911
8770 2 13.453818 48.08489 70.312755
8771 2 12.756432 49.453248 70.815888
8772 5 13.201271 48.595726 71.118048
8773 2 21.899398 7.232513 67.731361
8774 2 20.744634 6.131308 67.987798
8775 5 21.216485 6.681128 67.280988
8776 2 17.339127 51.211931 68.785431
8777 2 15.942547 51.798166 68.221703
8778 5 16.830246 52.044635 68.640953
8779 2 21.400797 52.101225 59.375272
8780 2 21.614427 52.065204 57.773723
8781 5 21.012195 52.394997 58.517416
8782 2 1.000349 35.170403 60.469119
8783 2 1.400596 34.70796 61.965062
8784 5 1.619028 34.598878 60.982761
8785 2 34.326663 10.180671 71.320873
8786 2 34.760239 8.628677 71.444255
8787 5 33.972843 9.262294 71.388895
8788 2 31.079134 47.730062 71.109727
8789 2 29.660606 47.703737 71.883665
8790 5 30.444547 47.139616 71.580794
8791 2 12.756031 14.44075 70.450169
8792 2 11.454239 13.559466 70.825097
8793 5 12.012014 14.360493 71.092997
8794 2 15.054592 46.436048 56.041856
8795 2 16.092304 46.041077 57.216185
8796 5 15.907902 46.693574 56.464672
8797 1 4.342836 22.377772 24.94938
8798 1 4.342836 10.747113 30.681126
8799 1 4.342836 28.027726 36.413623
8800 1 4.342836 16.396488 42.145369
8801 1 4.342836 4.765829 47.877115
8802 1 4.342836 22.046442 53.609612
8803 1 3.944174 7.661062 24.950881
8804 1 3.944174 24.941675 30.682627
8805 1 3.944174 13.311016 36.414373
8806 1 3.944174 1.679778 42.14687
8807 1 3.944174 18.960391 47.878616
8808 1 3.944174 7.329732 53.611112
8809 1 4.192769 28.21334 21.627999
8810 1 4.192769 16.582102 27.360495
8811 1 4.192769 4.951443 33.092242
8812 1 4.192769 22.232056 38.824738
8813 1 4.192769 10.600819 44.556484
8814 1 4.192769 27.88201 50.288981
8815 1 4.043461 13.346866 21.660267
8816 1 4.043461 1.715629 27.392013
8817 1 4.043461 18.99682 33.12451
8818 1 4.043461 7.365583 38.856256
8819 1 4.043461 24.646196 44.588753
8820 1 4.043461 13.015537 50.320499
8821 1 9.965027 22.405527 24.020354
8822 1 9.965027 10.77429 29.7521
8823 1 9.965027 28.054903 35.483846
8824 1 9.965027 16.424244 41.216343
8825 1 9.965027 4.793006 46.948089
8826 1 9.965027 22.074197 52.680585
8827 1 10.355731 7.754158 24.436089
8828 1 10.355731 25.034771 30.167835
8829 1 10.355731 13.404112 35.900332
8830 1 10.355731 1.772875 41.632078
8831 1 10.355731 19.053487 47.364575
8832 1 10.355731 7.422828 53.096321
8833 1 10.240528 27.625851 21.944678
8834 1 10.240528 15.995192 27.676424
8835 1 10.240528 4.363955 33.408921
8836 1 10.240528 21.645146 39.140667
8837 1 10.240528 10.013908 44.872413
8838 1 10.240528 27.294521 50.60491
8839 1 10.539524 13.241627 21.61224
8840 1 10.539524 1.61039 27.343986
8841 1 10.539524 18.891581 33.075732
8842 1 10.539524 7.260344 38.808229
8843 1 10.539524 24.540957 44.539975
8844 1 10.539524 12.910297 50.272472
8845 4 4.008976 22.834579 23.746449
8846 4 4.008976 11.203342 29.478195
8847 4 4.008976 28.484533 35.210691
8848 4 4.008976 16.853296 40.942438
8849 4 4.008976 5.222637 46.674184
8850 4 4.008976 22.503249 52.40668
8851 4 3.784255 21.356027 25.530959
8852 4 3.784255 9.72479 31.262705
8853 4 3.784255 27.005403 36.995202
8854 4 3.784255 15.374744 42.726948
8855 4 3.784255 3.743506 48.458694
8856 4 3.784255 21.024697 54.191191
8857 4 4.117357 7.162043 23.753203
8858 4 4.117357 24.443234 29.484949
8859 4 4.117357 12.811997 35.217445
8860 4 4.117357 1.18076 40.949191
8861 4 4.117357 18.461951 46.681688
8862 4 4.117357 6.830714 52.413434
8863 4 4.518292 8.827944 25.323092
8864 4 4.518292 26.108557 31.055588
8865 4 4.518292 14.47732 36.787334
8866 4 4.518292 2.846661 42.519081
8867 4 4.518292 20.127273 48.251577
8868 4 4.518292 8.496614 53.983323
8869 4 4.858595 27.766363 22.660584
8870 4 4.858595 16.135125 28.39308
8871 4 4.858595 4.503888 34.124826
8872 4 4.858595 21.785079 39.857323
8873 4 4.858595 10.153842 45.589069
8874 4 4.858595 27.435033 51.321566
8875 4 3.591366 27.446019 20.740246
8876 4 3.591366 15.81536 26.471992
8877 4 3.591366 4.184123 32.204489
8878 4 3.591366 21.465314 37.936235
8879 4 3.591366 9.834077 43.668732
8880 4 3.591366 27.114689 49.400478
8881 4 5.293257 12.907985 21.708294
8882 4 5.293257 1.277326 27.440041
8883 4 5.293257 18.557938 33.172537
8884 4 5.293257 6.927279 38.904283
8885 4 5.293257 24.207892 44.636029
8886 4 5.293257 12.576655 50.368526
8887 4 3.694821 14.319461 20.877574
8888 4 3.694821 2.688802 26.60932
8889 4 3.694821 19.969415 32.341817
8890 4 3.694821 8.338756 38.073563
8891 4 3.694821 25.619369 43.806059
8892 4 3.694821 13.988131 49.537806
8893 4 9.724769 22.126239 25.2503
8894 4 9.724769 10.495002 30.982047
8895 4 9.724769 27.775614 36.713793
8896 4 9.724769 16.144955 42.446289
8897 4 9.724769 4.513718 48.178035
8898 4 9.724769 21.794909 53.910532
8899 4 11.043157 22.065524 23.361481
8900 4 11.043157 10.434865 29.093227
8901 4 11.043157 27.715478 34.825723
8902 4 11.043157 16.084819 40.55747
8903 4 11.043157 4.453581 46.289216
8904 4 11.043157 21.734194 52.021712
8905 4 10.59182 8.620935 25.386127
8906 4 10.59182 25.902126 31.117873
8907 4 10.59182 14.270889 36.85037
8908 4 10.59182 2.639652 42.582116
8909 4 10.59182 19.920843 48.314613
8910 4 10.59182 8.289606 54.046359
8911 4 11.276215 6.968912 23.883026
8912 4 11.276215 24.249525 29.614772
8913 4 11.276215 12.618866 35.347269
8914 4 11.276215 0.987629 41.079015
8915 4 11.276215 18.268242 46.811512
8916 4 11.276215 6.637583 52.543258
8917 4 9.722495 28.775964 21.765327
8918 4 9.722495 17.144727 27.497073
8919 4 9.722495 5.51349 33.228819
8920 4 9.722495 22.794681 38.961316
8921 4 9.722495 11.163444 44.693062
8922 4 9.722495 28.444635 50.425558
8923 4 10.498976 27.034314 23.103334
8924 4 10.498976 15.403655 28.835831
8925 4 10.498976 3.772418 34.567577
8926 4 10.498976 21.053031 40.300074
8927 4 10.498976 9.422372 46.03182
8928 4 10.498976 26.702985 51.764316
8929 4 10.455396 12.083419 22.19457
8930 4 10.455396 0.45276 27.927066
8931 4 10.455396 17.733372 33.658813
8932 4 10.455396 6.102135 39.391309
8933 4 10.455396 23.383326 45.123055
8934 4 10.455396 11.752089 50.854801
8935 4 10.173074 14.413714 22.102268
8936 4 10.173074 2.783055 27.834764
8937 4 10.173074 20.063667 33.56651
8938 4 10.173074 8.43243 39.299007
8939 4 10.173074 25.713621 45.030753
8940 4 10.173074 14.082384 50.762499
8941 2 3.258643 22.356377 23.231657
8942 2 3.258643 10.725718 28.963403
8943 2 3.258643 28.006331 34.6959
8944 2 3.258643 16.375672 40.427646
8945 2 3.258643 4.744435 46.160143
8946 2 3.258643 22.025047 51.891889
8947 2 2.854297 21.026432 25.21428
8948 2 2.854297 9.395195 30.946777
8949 2 2.854297 26.676386 36.678523
8950 2 2.854297 15.045149 42.410269
8951 2 2.854297 3.413911 48.142765
8952 2 2.854297 20.695102 53.874512
8953 2 5.220119 22.790055 25.401886
8954 2 5.220119 11.158818 31.134383
8955 2 5.220119 28.43943 36.866129
8956 2 5.220119 16.808771 42.598626
8957 2 5.220119 5.177534 48.330372
8958 2 5.220119 22.458725 54.062868
8959 2 4.514882 23.594383 23.404255
8960 2 4.514882 11.963724 29.136001
8961 2 4.514882 29.244336 34.867747
8962 2 4.514882 17.613099 40.600244
8963 2 4.514882 5.98244 46.33199
8964 2 4.514882 23.263053 52.064487
8965 2 4.258708 20.887077 26.381941
8966 2 4.258708 9.25584 32.114438
8967 2 4.258708 26.536452 37.846184
8968 2 4.258708 14.905793 43.57793
8969 2 4.258708 3.274556 49.310427
8970 2 4.258708 20.555747 55.042173
8971 2 4.635011 7.726403 23.069565
8972 2 4.635011 25.007594 28.801312
8973 2 4.635011 13.376357 34.533808
8974 2 4.635011 1.745119 40.265554
8975 2 4.635011 19.02631 45.9973
8976 2 4.635011 7.395073 51.729797
8977 2 5.261804 9.081212 24.709244
8978 2 5.261804 26.362403 30.441741
8979 2 5.261804 14.731166 36.173487
8980 2 5.261804 3.099929 41.905983
8981 2 5.261804 20.38112 47.637729
8982 2 5.261804 8.749882 53.370226
8983 2 3.379909 7.178234 25.667537
8984 2 3.379909 24.459425 31.399283
8985 2 3.379909 12.828188 37.131029
8986 2 3.379909 1.197529 42.863526
8987 2 3.379909 18.478142 48.595272
8988 2 3.379909 6.846904 54.327768
8989 2 3.504585 6.453703 23.383243
8990 2 3.504585 23.734894 29.11574
8991 2 3.504585 12.103657 34.847486
8992 2 3.504585 0.472998 40.579982
8993 2 3.504585 17.753611 46.311728
8994 2 3.504585 6.122373 52.043475
8995 2 4.768403 8.888081 26.287388
8996 2 4.768403 26.169272 32.019134
8997 2 4.768403 14.538035 37.75163
8998 2 4.768403 2.907376 43.483377
8999 2 4.768403 20.187988 49.215123
9000 2 4.768403 8.556751 54.947619
9001 2 3.7096 26.41271 20.858063
9002 2 3.7096 14.781472 26.590559
9003 2 3.7096 3.150235 32.322306
9004 2 3.7096 20.431426 38.054802
9005 2 3.7096 8.800189 43.786548
9006 2 3.7096 26.08138 49.518294
9007 2 2.88196 27.797009 20.126399
9008 2 2.88196 16.165772 25.858895
9009 2 2.88196 4.535113 31.590641
9010 2 2.88196 21.815726 37.323138
9011 2 2.88196 10.185067 43.054884
9012 2 2.88196 27.465679 48.78663
9013 2 4.089693 29.300425 21.55971
9014 2 4.089693 17.669188 27.291456
9015 2 4.089693 6.038529 33.023203
9016 2 4.089693 23.319142 38.755699
9017 2 4.089693 11.687904 44.487445
9018 2 4.089693 28.969095 50.219942
9019 2 4.934765 26.796081 22.890964
9020 2 4.934765 15.165422 28.62271
9021 2 4.934765 3.534185 34.354456
9022 2 4.934765 20.815376 40.086953
9023 2 4.934765 9.184138 45.818699
9024 2 4.934765 26.464751 51.551196
9025 2 5.247025 28.464295 23.309701
9026 2 5.247025 16.833057 29.042198
9027 2 5.247025 5.202398 34.773944
9028 2 5.247025 22.483011 40.506441
9029 2 5.247025 10.851774 46.238187
9030 2 5.247025 28.132965 51.969933
9031 2 6.103844 13.365948 21.366851
9032 2 6.103844 1.734711 27.098597
9033 2 6.103844 19.015902 32.831094
9034 2 6.103844 7.384665 38.56284
9035 2 6.103844 24.665277 44.294586
9036 2 6.103844 13.034618 50.027083
9037 2 2.842928 14.819058 21.078688
9038 2 2.842928 3.187821 26.810434
9039 2 2.842928 20.469012 32.542931
9040 2 2.842928 8.837774 38.274677
9041 2 2.842928 26.118387 44.007173
9042 2 2.842928 14.487728 49.738919
9043 2 3.261295 12.817201 22.21333
9044 2 3.261295 1.185964 27.945827
9045 2 3.261295 18.466577 33.677573
9046 2 3.261295 6.835918 39.409319
9047 2 3.261295 24.116531 45.141816
9048 2 3.261295 12.485872 50.873562
9049 2 4.321993 14.912154 20.346273
9050 2 4.321993 3.280917 26.078019
9051 2 4.321993 20.562108 31.810516
9052 2 4.321993 8.93087 37.542262
9053 2 4.321993 26.211483 43.274008
9054 2 4.321993 14.580824 49.006505
9055 2 5.508504 12.255155 22.42495
9056 2 5.508504 0.623918 28.156696
9057 2 5.508504 17.905109 33.889193
9058 2 5.508504 6.273871 39.620939
9059 2 5.508504 23.554484 45.353436
9060 2 5.508504 11.923825 51.085182
9061 2 8.812622 22.376037 25.542216
9062 2 8.812622 10.745378 31.273962
9063 2 8.812622 28.025991 37.006458
9064 2 8.812622 16.394754 42.738205
9065 2 8.812622 4.764095 48.470701
9066 2 8.812622 22.044707 54.202447
9067 2 10.159431 21.502321 25.845387
9068 2 10.159431 9.871662 31.577134
9069 2 10.159431 27.152275 37.30963
9070 2 10.159431 15.521038 43.041376
9071 2 10.159431 3.890379 48.773873
9072 2 10.159431 21.170991 54.505619
9073 2 11.797279 21.481505 23.687916
9074 2 11.797279 9.850846 29.420412
9075 2 11.797279 27.131458 35.152158
9076 2 11.797279 15.500221 40.884655
9077 2 11.797279 3.869562 46.616401
9078 2 11.797279 21.150175 52.348147
9079 2 9.276843 23.083799 23.609121
9080 2 9.276843 11.45314 29.340867
9081 2 9.276843 28.733753 35.073364
9082 2 9.276843 17.102516 40.80511
9083 2 9.276843 5.471857 46.537606
9084 2 9.276843 22.752469 52.269353
9085 2 10.988966 22.475494 22.393432
9086 2 10.988966 10.844835 28.125929
9087 2 10.988966 28.125448 33.857675
9088 2 10.988966 16.49421 39.590172
9089 2 10.988966 4.863551 45.321918
9090 2 10.988966 22.144164 51.054414
9091 2 9.827845 9.199172 25.56773
9092 2 9.827845 26.480363 31.300227
9093 2 9.827845 14.849126 37.031973
9094 2 9.827845 3.218467 42.763719
9095 2 9.827845 20.49908 48.496216
9096 2 9.827845 8.867843 54.227962
9097 2 11.554368 8.825053 25.74483
9098 2 11.554368 26.106244 31.476577
9099 2 11.554368 14.475007 37.209073
9100 2 11.554368 2.844348 42.940819
9101 2 11.554368 20.124961 48.673316
9102 2 11.554368 8.493723 54.405062
9103 2 12.227015 7.029627 24.287505
9104 2 12.227015 24.310818 30.019251
9105 2 12.227015 12.679581 35.751748
9106 2 12.227015 1.048344 41.483494
9107 2 12.227015 18.329535 47.215991
9108 2 12.227015 6.698297 52.947737
9109 2 9.383708 7.679566 23.946062
9110 2 9.383708 24.960178 29.677808
9111 2 9.383708 13.329519 35.410304
9112 2 9.383708 1.698282 41.142051
9113 2 9.383708 18.978895 46.873797
9114 2 9.383708 7.348236 52.606293
9115 2 10.992377 6.297001 23.197888
9116 2 10.992377 23.578192 28.929634
9117 2 10.992377 11.946955 34.662131
9118 2 10.992377 0.316296 40.393877
9119 2 10.992377 17.596908 46.126373
9120 2 10.992377 5.965671 51.85812
9121 2 11.227329 26.294749 23.06056
9122 2 11.227329 14.663512 28.792306
9123 2 11.227329 3.032853 34.524053
9124 2 11.227329 20.313466 40.256549
9125 2 11.227329 8.682807 45.988295
9126 2 11.227329 25.96342 51.720792
9127 2 10.201496 27.387617 24.040615
9128 2 10.201496 15.756958 29.773112
9129 2 10.201496 4.125721 35.504858
9130 2 10.201496 21.406334 41.237355
9131 2 10.201496 9.775675 46.969101
9132 2 10.201496 27.056287 52.701597
9133 2 9.546281 29.113655 20.81754
9134 2 9.546281 17.482417 26.549286
9135 2 9.546281 5.851758 32.281783
9136 2 9.546281 23.132371 38.013529
9137 2 9.546281 11.501134 43.746025
9138 2 9.546281 28.782325 49.477772
9139 2 9.441689 29.405086 22.610305
9140 2 9.441689 17.773849 28.342802
9141 2 9.441689 6.14319 34.074548
9142 2 9.441689 23.423803 39.807045
9143 2 9.441689 11.792565 45.538791
9144 2 9.441689 29.073756 51.270537
9145 2 10.487607 27.038362 21.08169
9146 2 10.487607 15.407125 26.814186
9147 2 10.487607 3.775888 32.545932
9148 2 10.487607 21.057079 38.278429
9149 2 10.487607 9.425841 44.010175
9150 2 10.487607 26.707032 49.741921
9151 2 10.970776 11.263479 21.691785
9152 2 10.970776 57.455941 27.423531
9153 2 10.970776 16.913432 33.155277
9154 2 10.970776 5.282195 38.887774
9155 2 10.970776 22.563386 44.61952
9156 2 10.970776 10.932149 50.352017
9157 2 10.552788 15.243484 21.765327
9158 2 10.552788 3.612825 27.497823
9159 2 10.552788 20.893438 33.229569
9160 2 10.552788 9.262779 38.961316
9161 2 10.552788 26.543391 44.693812
9162 2 10.552788 14.912154 50.425558
9163 2 10.069619 11.834777 23.114591
9164 2 10.069619 0.203539 28.846337
9165 2 10.069619 17.484152 34.578083
9166 2 10.069619 5.853493 40.31058
9167 2 10.069619 23.134106 46.042326
9168 2 10.069619 11.502869 51.774822
9169 2 9.498911 14.417183 22.866951
9170 2 9.498911 2.785946 28.599447
9171 2 9.498911 20.067137 34.331193
9172 2 9.498911 8.4359 40.06369
9173 2 9.498911 25.717091 45.795436
9174 2 9.498911 14.085853 51.527182
9175 2 10.948039 13.269383 20.574402
9176 2 10.948039 1.638724 26.306899
9177 2 10.948039 18.919336 32.038645
9178 2 10.948039 7.288099 37.771142
9179 2 10.948039 24.56929 43.502888
9180 2 10.948039 12.938053 49.235384
9181 6 0.945116 3.45381 22.968258
9182 6 0.945116 20.734422 28.700004
9183 6 0.945116 9.103185 34.432501
9184 6 0.945116 26.384376 40.164247
9185 6 0.945116 14.753139 45.896743
9186 6 0.945116 3.121902 51.62849
9187 6 0.786334 17.689426 23.180628
9188 6 0.786334 6.058189 28.912374
9189 6 0.786334 23.33938 34.644871
9190 6 0.786334 11.708143 40.376617
9191 6 0.786334 0.076906 46.109114
9192 6 0.786334 17.358097 51.84086
9193 6 1.185374 9.268561 20.407057
9194 6 1.185374 26.549752 26.139554
9195 6 1.185374 14.918515 31.8713
9196 6 1.185374 3.287277 37.603797
9197 6 1.185374 20.568468 43.335543
9198 6 1.185374 8.937231 49.067289
9199 6 1.371063 23.730846 19.999577
9200 6 1.371063 12.100187 25.732073
9201 6 1.371063 0.46895 31.463819
9202 6 1.371063 17.749563 37.196316
9203 6 1.371063 6.118904 42.928062
9204 6 1.371063 23.399517 48.660559
9205 6 7.485897 23.39836 20.602918
9206 6 7.485897 11.767701 26.335415
9207 6 7.485897 0.136464 32.067161
9208 6 7.485897 17.417655 37.799658
9209 6 7.485897 5.786418 43.531404
9210 6 7.485897 23.06703 49.2639
9211 6 7.373347 9.206111 20.491855
9212 6 7.373347 26.486724 26.223602
9213 6 7.373347 14.856065 31.956098
9214 6 7.373347 3.224828 37.687844
9215 6 7.373347 20.50544 43.420341
9216 6 7.373347 8.874781 49.152087
9217 6 6.981127 17.590548 23.405756
9218 6 6.981127 5.959311 29.137502
9219 6 6.981127 23.240502 34.869998
9220 6 6.981127 11.609264 40.601745
9221 6 6.981127 28.890455 46.334241
9222 6 6.981127 17.259218 52.065987
9223 6 7.289598 3.218467 23.356978
9224 6 7.289598 20.49908 29.088724
9225 6 7.289598 8.868421 34.821221
9226 6 7.289598 26.149034 40.552967
9227 6 7.289598 14.518375 46.285464
9228 6 7.289598 2.887137 52.01721
9229 3 1.459739 6.422478 21.652013
9230 3 1.459739 23.703091 27.383759
9231 3 1.459739 12.072432 33.116255
9232 3 1.459739 0.441195 38.848001
9233 3 1.459739 17.722386 44.580498
9234 3 1.459739 6.091149 50.312244
9235 3 0.811724 2.362676 20.241214
9236 3 0.811724 19.643289 25.97371
9237 3 0.811724 8.012052 31.705456
9238 3 0.811724 25.293243 37.437202
9239 3 0.811724 13.662006 43.169699
9240 3 0.811724 2.031347 48.901445
9241 3 3.895668 17.728746 23.164869
9242 3 3.895668 6.097509 28.896615
9243 3 3.895668 23.3787 34.629112
9244 3 3.895668 11.747463 40.360858
9245 3 3.895668 0.116226 46.092604
9246 3 3.895668 17.397417 51.825101
9247 3 1.249797 20.870308 21.625748
9248 3 1.249797 9.239071 27.357494
9249 3 1.249797 26.520262 33.08924
9250 3 1.249797 14.889025 38.821737
9251 3 1.249797 3.257787 44.553483
9252 3 1.249797 20.538978 50.285979
9253 3 1.122847 16.580946 20.2172
9254 3 1.122847 4.950287 25.949697
9255 3 1.122847 22.2309 31.681443
9256 3 1.122847 10.599662 37.413189
9257 3 1.122847 27.880853 43.145685
9258 3 1.122847 16.249616 48.877432
9259 3 1.200154 25.095486 22.788156
9260 3 1.200154 13.464249 28.520653
9261 3 1.200154 1.833011 34.252399
9262 3 1.200154 19.114202 39.984895
9263 3 1.200154 7.482965 45.716641
9264 3 1.200154 24.764156 51.449138
9265 3 3.990786 3.117276 23.284937
9266 3 3.990786 20.398467 29.017434
9267 3 3.990786 8.767229 34.74918
9268 3 3.990786 26.04842 40.481677
9269 3 3.990786 14.417183 46.213423
9270 3 3.990786 2.785946 51.945919
9271 3 0.701827 0.233608 24.315271
9272 3 0.701827 17.51422 30.047017
9273 3 0.701827 5.882983 35.779514
9274 3 0.701827 23.164174 41.51126
9275 3 0.701827 11.532937 47.243756
9276 3 0.701827 28.814128 52.975502
9277 3 0.964443 11.073239 22.849691
9278 3 0.964443 28.35443 28.581437
9279 3 0.964443 16.723192 34.313934
9280 3 0.964443 5.092533 40.04568
9281 3 0.964443 22.373146 45.778176
9282 3 0.964443 10.741909 51.509922
9283 3 4.314793 23.958672 20.216449
9284 3 4.314793 12.327435 25.948196
9285 3 4.314793 0.696197 31.680692
9286 3 4.314793 17.977388 37.412438
9287 3 4.314793 6.346151 43.144935
9288 3 4.314793 23.627342 48.876681
9289 3 4.210959 9.498121 20.795027
9290 3 4.210959 26.778734 26.526773
9291 3 4.210959 15.147496 32.258519
9292 3 4.210959 3.516837 37.991016
9293 3 4.210959 20.79745 43.722762
9294 3 4.210959 9.166791 49.455259
9295 3 0.931095 14.900011 24.443594
9296 3 0.931095 3.269352 30.17609
9297 3 0.931095 20.549965 35.907836
9298 3 0.931095 8.918727 41.640333
9299 3 0.931095 26.199918 47.372079
9300 3 0.931095 14.568681 53.104576
9301 3 6.527896 21.003881 22.585541
9302 3 6.527896 9.373222 28.317287
9303 3 6.527896 26.653835 34.049784
9304 3 6.527896 15.023175 39.78153
9305 3 6.527896 3.391938 45.513276
9306 3 6.527896 20.672551 51.245773
9307 3 7.088372 25.004124 23.441776
9308 3 7.088372 13.372887 29.173522
9309 3 7.088372 1.742228 34.906019
9310 3 7.088372 19.022841 40.637765
9311 3 7.088372 7.391604 46.370262
9312 3 7.088372 24.672795 52.102008
9313 3 6.859862 2.137164 20.526375
9314 3 6.859862 19.418355 26.258872
9315 3 6.859862 7.787118 31.990618
9316 3 6.859862 25.068309 37.722364
9317 3 6.859862 13.437071 43.45486
9318 3 6.859862 1.805834 49.186607
9319 3 10.502008 8.96383 20.878324
9320 3 10.502008 26.245021 26.610821
9321 3 10.502008 14.613784 32.342567
9322 3 10.502008 2.982546 38.075064
9323 3 10.502008 20.263737 43.80681
9324 3 10.502008 8.6325 49.539306
9325 3 6.914052 6.325913 21.956685
9326 3 6.914052 23.607104 27.689182
9327 3 6.914052 11.975867 33.420928
9328 3 6.914052 0.344629 39.153424
9329 3 6.914052 17.62582 44.885171
9330 3 6.914052 5.994583 50.616917
9331 3 7.246776 16.550299 20.479098
9332 3 7.246776 4.919062 26.210844
9333 3 7.246776 22.200253 31.943341
9334 3 7.246776 10.569016 37.675087
9335 3 7.246776 27.849629 43.406833
9336 3 7.246776 16.21897 49.13933
9337 3 7.414274 10.226121 23.578353
9338 3 7.414274 27.507312 29.31085
9339 3 7.414274 15.876075 35.042596
9340 3 7.414274 4.244838 40.774342
9341 3 7.414274 21.526029 46.506839
9342 3 7.414274 9.894792 52.238585
9343 3 10.100314 17.853067 23.502561
9344 3 10.100314 6.22183 29.234307
9345 3 10.100314 23.502443 34.966803
9346 3 10.100314 11.871784 40.698549
9347 3 10.100314 0.240547 46.431046
9348 3 10.100314 17.521738 52.162792
9349 3 10.199222 2.995268 22.856445
9350 3 10.199222 20.276459 28.588941
9351 3 10.199222 8.645221 34.320687
9352 3 10.199222 25.925834 40.053184
9353 3 10.199222 14.295175 45.78493
9354 3 10.199222 2.663938 51.517427
9355 3 7.367284 14.391162 24.393315
9356 3 7.367284 2.759925 30.125812
9357 3 7.367284 20.041116 35.857558
9358 3 7.367284 8.409879 41.589304
9359 3 7.367284 25.690492 47.321801
9360 3 7.367284 14.059833 53.053547
9361 3 10.387942 23.849963 20.235961
9362 3 10.387942 12.218726 25.968457
9363 3 10.387942 0.588067 31.700203
9364 3 10.387942 17.86868 37.4327
9365 3 10.387942 6.238021 43.164446
9366 3 10.387942 23.518634 48.896943
9367 3 7.514697 0.542965 24.833064
9368 3 7.514697 17.824156 30.565561
9369 3 7.514697 6.192918 36.297307
9370 3 7.514697 23.474109 42.029053
9371 3 7.514697 11.842872 47.76155
9372 3 7.514697 0.211635 53.493296
9373 1 16.974576 22.377772 24.94938
9374 1 16.974576 10.747113 30.681126
9375 1 16.974576 28.027726 36.413623
9376 1 16.974576 16.396488 42.145369
9377 1 16.974576 4.765829 47.877115
9378 1 16.974576 22.046442 53.609612
9379 1 16.576293 7.661062 24.950881
9380 1 16.576293 24.941675 30.682627
9381 1 16.576293 13.311016 36.414373
9382 1 16.576293 1.679778 42.14687
9383 1 16.576293 18.960391 47.878616
9384 1 16.576293 7.329732 53.611112
9385 1 16.824888 28.21334 21.627999
9386 1 16.824888 16.582102 27.360495
9387 1 16.824888 4.951443 33.092242
9388 1 16.824888 22.232056 38.824738
9389 1 16.824888 10.600819 44.556484
9390 1 16.824888 27.88201 50.288981
9391 1 16.675201 13.346866 21.660267
9392 1 16.675201 1.715629 27.392013
9393 1 16.675201 18.99682 33.12451
9394 1 16.675201 7.365583 38.856256
9395 1 16.675201 24.646196 44.588753
9396 1 16.675201 13.015537 50.320499
9397 1 22.597146 22.405527 24.020354
9398 1 22.597146 10.77429 29.7521
9399 1 22.597146 28.054903 35.483846
9400 1 22.597146 16.424244 41.216343
9401 1 22.597146 4.793006 46.948089
9402 1 22.597146 22.074197 52.680585
9403 1 22.987471 7.754158 24.436089
9404 1 22.987471 25.034771 30.167835
9405 1 22.987471 13.404112 35.900332
9406 1 22.987471 1.772875 41.632078
9407 1 22.987471 19.053487 47.364575
9408 1 22.987471 7.422828 53.096321
9409 1 22.872268 27.625851 21.944678
9410 1 22.872268 15.995192 27.676424
9411 1 22.872268 4.363955 33.408921
9412 1 22.872268 21.645146 39.140667
9413 1 22.872268 10.013908 44.872413
9414 1 22.872268 27.294521 50.60491
9415 1 23.171265 13.241627 21.61224
9416 1 23.171265 1.61039 27.343986
9417 1 23.171265 18.891581 33.075732
9418 1 23.171265 7.260344 38.808229
9419 1 23.171265 24.540957 44.539975
9420 1 23.171265 12.910297 50.272472
9421 4 16.640716 22.834579 23.746449
9422 4 16.640716 11.203342 29.478195
9423 4 16.640716 28.484533 35.210691
9424 4 16.640716 16.853296 40.942438
9425 4 16.640716 5.222637 46.674184
9426 4 16.640716 22.503249 52.40668
9427 4 16.416374 21.356027 25.530959
9428 4 16.416374 9.72479 31.262705
9429 4 16.416374 27.005403 36.995202
9430 4 16.416374 15.374744 42.726948
9431 4 16.416374 3.743506 48.458694
9432 4 16.416374 21.024697 54.191191
9433 4 16.749097 7.162043 23.753203
9434 4 16.749097 24.443234 29.484949
9435 4 16.749097 12.811997 35.217445
9436 4 16.749097 1.18076 40.949191
9437 4 16.749097 18.461951 46.681688
9438 4 16.749097 6.830714 52.413434
9439 4 17.150033 8.827944 25.323092
9440 4 17.150033 26.108557 31.055588
9441 4 17.150033 14.47732 36.787334
9442 4 17.150033 2.846661 42.519081
9443 4 17.150033 20.127273 48.251577
9444 4 17.150033 8.496614 53.983323
9445 4 17.490714 27.766363 22.660584
9446 4 17.490714 16.135125 28.39308
9447 4 17.490714 4.503888 34.124826
9448 4 17.490714 21.785079 39.857323
9449 4 17.490714 10.153842 45.589069
9450 4 17.490714 27.435033 51.321566
9451 4 16.223485 27.446019 20.740246
9452 4 16.223485 15.81536 26.471992
9453 4 16.223485 4.184123 32.204489
9454 4 16.223485 21.465314 37.936235
9455 4 16.223485 9.834077 43.668732
9456 4 16.223485 27.114689 49.400478
9457 4 17.924998 12.907985 21.708294
9458 4 17.924998 1.277326 27.440041
9459 4 17.924998 18.557938 33.172537
9460 4 17.924998 6.927279 38.904283
9461 4 17.924998 24.207892 44.636029
9462 4 17.924998 12.576655 50.368526
9463 4 16.32694 14.319461 20.877574
9464 4 16.32694 2.688802 26.60932
9465 4 16.32694 19.969415 32.341817
9466 4 16.32694 8.338756 38.073563
9467 4 16.32694 25.619369 43.806059
9468 4 16.32694 13.988131 49.537806
9469 4 22.356509 22.126239 25.2503
9470 4 22.356509 10.495002 30.982047
9471 4 22.356509 27.775614 36.713793
9472 4 22.356509 16.144955 42.446289
9473 4 22.356509 4.513718 48.178035
9474 4 22.356509 21.794909 53.910532
9475 4 23.674897 22.065524 23.361481
9476 4 23.674897 10.434865 29.093227
9477 4 23.674897 27.715478 34.825723
9478 4 23.674897 16.084819 40.55747
9479 4 23.674897 4.453581 46.289216
9480 4 23.674897 21.734194 52.021712
9481 4 23.223561 8.620935 25.386127
9482 4 23.223561 25.902126 31.117873
9483 4 23.223561 14.270889 36.85037
9484 4 23.223561 2.639652 42.582116
9485 4 23.223561 19.920843 48.314613
9486 4 23.223561 8.289606 54.046359
9487 4 23.907955 6.968912 23.883026
9488 4 23.907955 24.249525 29.614772
9489 4 23.907955 12.618866 35.347269
9490 4 23.907955 0.987629 41.079015
9491 4 23.907955 18.268242 46.811512
9492 4 23.907955 6.637583 52.543258
9493 4 22.354235 28.775964 21.765327
9494 4 22.354235 17.144727 27.497073
9495 4 22.354235 5.51349 33.228819
9496 4 22.354235 22.794681 38.961316
9497 4 22.354235 11.163444 44.693062
9498 4 22.354235 28.444635 50.425558
9499 4 23.130716 27.034314 23.103334
9500 4 23.130716 15.403655 28.835831
9501 4 23.130716 3.772418 34.567577
9502 4 23.130716 21.053031 40.300074
9503 4 23.130716 9.422372 46.03182
9504 4 23.130716 26.702985 51.764316
9505 4 23.087136 12.083419 22.19457
9506 4 23.087136 0.45276 27.927066
9507 4 23.087136 17.733372 33.658813
9508 4 23.087136 6.102135 39.391309
9509 4 23.087136 23.383326 45.123055
9510 4 23.087136 11.752089 50.854801
9511 4 22.804814 14.413714 22.102268
9512 4 22.804814 2.783055 27.834764
9513 4 22.804814 20.063667 33.56651
9514 4 22.804814 8.43243 39.299007
9515 4 22.804814 25.713621 45.030753
9516 4 22.804814 14.082384 50.762499
9517 2 15.890383 22.356377 23.231657
9518 2 15.890383 10.725718 28.963403
9519 2 15.890383 28.006331 34.6959
9520 2 15.890383 16.375672 40.427646
9521 2 15.890383 4.744435 46.160143
9522 2 15.890383 22.025047 51.891889
9523 2 15.486037 21.026432 25.21428
9524 2 15.486037 9.395195 30.946777
9525 2 15.486037 26.676386 36.678523
9526 2 15.486037 15.045149 42.410269
9527 2 15.486037 3.413911 48.142765
9528 2 15.486037 20.695102 53.874512
9529 2 17.852238 22.790055 25.401886
9530 2 17.852238 11.158818 31.134383
9531 2 17.852238 28.43943 36.866129
9532 2 17.852238 16.808771 42.598626
9533 2 17.852238 5.177534 48.330372
9534 2 17.852238 22.458725 54.062868
9535 2 17.146622 23.594383 23.404255
9536 2 17.146622 11.963724 29.136001
9537 2 17.146622 29.244336 34.867747
9538 2 17.146622 17.613099 40.600244
9539 2 17.146622 5.98244 46.33199
9540 2 17.146622 23.263053 52.064487
9541 2 16.890448 20.887077 26.381941
9542 2 16.890448 9.25584 32.114438
9543 2 16.890448 26.536452 37.846184
9544 2 16.890448 14.905793 43.57793
9545 2 16.890448 3.274556 49.310427
9546 2 16.890448 20.555747 55.042173
9547 2 17.26713 7.726403 23.069565
9548 2 17.26713 25.007594 28.801312
9549 2 17.26713 13.376357 34.533808
9550 2 17.26713 1.745119 40.265554
9551 2 17.26713 19.02631 45.9973
9552 2 17.26713 7.395073 51.729797
9553 2 17.893544 9.081212 24.709244
9554 2 17.893544 26.362403 30.441741
9555 2 17.893544 14.731166 36.173487
9556 2 17.893544 3.099929 41.905983
9557 2 17.893544 20.38112 47.637729
9558 2 17.893544 8.749882 53.370226
9559 2 16.011649 7.178234 25.667537
9560 2 16.011649 24.459425 31.399283
9561 2 16.011649 12.828188 37.131029
9562 2 16.011649 1.197529 42.863526
9563 2 16.011649 18.478142 48.595272
9564 2 16.011649 6.846904 54.327768
9565 2 16.136325 6.453703 23.383243
9566 2 16.136325 23.734894 29.11574
9567 2 16.136325 12.103657 34.847486
9568 2 16.136325 0.472998 40.579982
9569 2 16.136325 17.753611 46.311728
9570 2 16.136325 6.122373 52.043475
9571 2 17.400144 8.888081 26.287388
9572 2 17.400144 26.169272 32.019134
9573 2 17.400144 14.538035 37.75163
9574 2 17.400144 2.907376 43.483377
9575 2 17.400144 20.187988 49.215123
9576 2 17.400144 8.556751 54.947619
9577 2 16.34172 26.41271 20.858063
9578 2 16.34172 14.781472 26.590559
9579 2 16.34172 3.150235 32.322306
9580 2 16.34172 20.431426 38.054802
9581 2 16.34172 8.800189 43.786548
9582 2 16.34172 26.08138 49.518294
9583 2 15.513701 27.797009 20.126399
9584 2 15.513701 16.165772 25.858895
9585 2 15.513701 4.535113 31.590641
9586 2 15.513701 21.815726 37.323138
9587 2 15.513701 10.185067 43.054884
9588 2 15.513701 27.465679 48.78663
9589 2 16.721433 29.300425 21.55971
9590 2 16.721433 17.669188 27.291456
9591 2 16.721433 6.038529 33.023203
9592 2 16.721433 23.319142 38.755699
9593 2 16.721433 11.687904 44.487445
9594 2 16.721433 28.969095 50.219942
9595 2 17.566884 26.796081 22.890964
9596 2 17.566884 15.165422 28.62271
9597 2 17.566884 3.534185 34.354456
9598 2 17.566884 20.815376 40.086953
9599 2 17.566884 9.184138 45.818699
9600 2 17.566884 26.464751 51.551196
9601 2 17.879144 28.464295 23.309701
9602 2 17.879144 16.833057 29.042198
9603 2 17.879144 5.202398 34.773944
9604 2 17.879144 22.483011 40.506441
9605 2 17.879144 10.851774 46.238187
9606 2 17.879144 28.132965 51.969933
9607 2 18.735585 13.365948 21.366851
9608 2 18.735585 1.734711 27.098597
9609 2 18.735585 19.015902 32.831094
9610 2 18.735585 7.384665 38.56284
9611 2 18.735585 24.665277 44.294586
9612 2 18.735585 13.034618 50.027083
9613 2 15.475047 14.819058 21.078688
9614 2 15.475047 3.187821 26.810434
9615 2 15.475047 20.469012 32.542931
9616 2 15.475047 8.837774 38.274677
9617 2 15.475047 26.118387 44.007173
9618 2 15.475047 14.487728 49.738919
9619 2 15.893036 12.817201 22.21333
9620 2 15.893036 1.185964 27.945827
9621 2 15.893036 18.466577 33.677573
9622 2 15.893036 6.835918 39.409319
9623 2 15.893036 24.116531 45.141816
9624 2 15.893036 12.485872 50.873562
9625 2 16.953734 14.912154 20.346273
9626 2 16.953734 3.280917 26.078019
9627 2 16.953734 20.562108 31.810516
9628 2 16.953734 8.93087 37.542262
9629 2 16.953734 26.211483 43.274008
9630 2 16.953734 14.580824 49.006505
9631 2 18.140624 12.255155 22.42495
9632 2 18.140624 0.623918 28.156696
9633 2 18.140624 17.905109 33.889193
9634 2 18.140624 6.273871 39.620939
9635 2 18.140624 23.554484 45.353436
9636 2 18.140624 11.923825 51.085182
9637 2 21.444741 22.376037 25.542216
9638 2 21.444741 10.745378 31.273962
9639 2 21.444741 28.025991 37.006458
9640 2 21.444741 16.394754 42.738205
9641 2 21.444741 4.764095 48.470701
9642 2 21.444741 22.044707 54.202447
9643 2 22.791551 21.502321 25.845387
9644 2 22.791551 9.871662 31.577134
9645 2 22.791551 27.152275 37.30963
9646 2 22.791551 15.521038 43.041376
9647 2 22.791551 3.890379 48.773873
9648 2 22.791551 21.170991 54.505619
9649 2 24.42902 21.481505 23.687916
9650 2 24.42902 9.850846 29.420412
9651 2 24.42902 27.131458 35.152158
9652 2 24.42902 15.500221 40.884655
9653 2 24.42902 3.869562 46.616401
9654 2 24.42902 21.150175 52.348147
9655 2 21.908962 23.083799 23.609121
9656 2 21.908962 11.45314 29.340867
9657 2 21.908962 28.733753 35.073364
9658 2 21.908962 17.102516 40.80511
9659 2 21.908962 5.471857 46.537606
9660 2 21.908962 22.752469 52.269353
9661 2 23.620706 22.475494 22.393432
9662 2 23.620706 10.844835 28.125929
9663 2 23.620706 28.125448 33.857675
9664 2 23.620706 16.49421 39.590172
9665 2 23.620706 4.863551 45.321918
9666 2 23.620706 22.144164 51.054414
9667 2 22.459585 9.199172 25.56773
9668 2 22.459585 26.480363 31.300227
9669 2 22.459585 14.849126 37.031973
9670 2 22.459585 3.218467 42.763719
9671 2 22.459585 20.49908 48.496216
9672 2 22.459585 8.867843 54.227962
9673 2 24.186488 8.825053 25.74483
9674 2 24.186488 26.106244 31.476577
9675 2 24.186488 14.475007 37.209073
9676 2 24.186488 2.844348 42.940819
9677 2 24.186488 20.124961 48.673316
9678 2 24.186488 8.493723 54.405062
9679 2 24.858756 7.029627 24.287505
9680 2 24.858756 24.310818 30.019251
9681 2 24.858756 12.679581 35.751748
9682 2 24.858756 1.048344 41.483494
9683 2 24.858756 18.329535 47.215991
9684 2 24.858756 6.698297 52.947737
9685 2 22.015828 7.679566 23.946062
9686 2 22.015828 24.960178 29.677808
9687 2 22.015828 13.329519 35.410304
9688 2 22.015828 1.698282 41.142051
9689 2 22.015828 18.978895 46.873797
9690 2 22.015828 7.348236 52.606293
9691 2 23.624117 6.297001 23.197888
9692 2 23.624117 23.578192 28.929634
9693 2 23.624117 11.946955 34.662131
9694 2 23.624117 0.316296 40.393877
9695 2 23.624117 17.596908 46.126373
9696 2 23.624117 5.965671 51.85812
9697 2 23.85907 26.294749 23.06056
9698 2 23.85907 14.663512 28.792306
9699 2 23.85907 3.032853 34.524053
9700 2 23.85907 20.313466 40.256549
9701 2 23.85907 8.682807 45.988295
9702 2 23.85907 25.96342 51.720792
9703 2 22.833615 27.387617 24.040615
9704 2 22.833615 15.756958 29.773112
9705 2 22.833615 4.125721 35.504858
9706 2 22.833615 21.406334 41.237355
9707 2 22.833615 9.775675 46.969101
9708 2 22.833615 27.056287 52.701597
9709 2 22.178021 29.113655 20.81754
9710 2 22.178021 17.482417 26.549286
9711 2 22.178021 5.851758 32.281783
9712 2 22.178021 23.132371 38.013529
9713 2 22.178021 11.501134 43.746025
9714 2 22.178021 28.782325 49.477772
9715 2 22.073429 29.405086 22.610305
9716 2 22.073429 17.773849 28.342802
9717 2 22.073429 6.14319 34.074548
9718 2 22.073429 23.423803 39.807045
9719 2 22.073429 11.792565 45.538791
9720 2 22.073429 29.073756 51.270537
9721 2 23.119348 27.038362 21.08169
9722 2 23.119348 15.407125 26.814186
9723 2 23.119348 3.775888 32.545932
9724 2 23.119348 21.057079 38.278429
9725 2 23.119348 9.425841 44.010175
9726 2 23.119348 26.707032 49.741921
9727 2 23.602517 11.263479 21.691785
9728 2 23.602517 57.455941 27.423531
9729 2 23.602517 16.913432 33.155277
9730 2 23.602517 5.282195 38.887774
9731 2 23.602517 22.563386 44.61952
9732 2 23.602517 10.932149 50.352017
9733 2 23.184528 15.243484 21.765327
9734 2 23.184528 3.612825 27.497823
9735 2 23.184528 20.893438 33.229569
9736 2 23.184528 9.262779 38.961316
9737 2 23.184528 26.543391 44.693812
9738 2 23.184528 14.912154 50.425558
9739 2 22.701738 11.834777 23.114591
9740 2 22.701738 0.203539 28.846337
9741 2 22.701738 17.484152 34.578083
9742 2 22.701738 5.853493 40.31058
9743 2 22.701738 23.134106 46.042326
9744 2 22.701738 11.502869 51.774822
9745 2 22.130651 14.417183 22.866951
9746 2 22.130651 2.785946 28.599447
9747 2 22.130651 20.067137 34.331193
9748 2 22.130651 8.4359 40.06369
9749 2 22.130651 25.717091 45.795436
9750 2 22.130651 14.085853 51.527182
9751 2 23.579779 13.269383 20.574402
9752 2 23.579779 1.638724 26.306899
9753 2 23.579779 18.919336 32.038645
9754 2 23.579779 7.288099 37.771142
9755 2 23.579779 24.56929 43.502888
9756 2 23.579779 12.938053 49.235384
9757 6 13.576857 3.45381 22.968258
9758 6 13.576857 20.734422 28.700004
9759 6 13.576857 9.103185 34.432501
9760 6 13.576857 26.384376 40.164247
9761 6 13.576857 14.753139 45.896743
9762 6 13.576857 3.121902 51.62849
9763 6 13.418074 17.689426 23.180628
9764 6 13.418074 6.058189 28.912374
9765 6 13.418074 23.33938 34.644871
9766 6 13.418074 11.708143 40.376617
9767 6 13.418074 0.076906 46.109114
9768 6 13.418074 17.358097 51.84086
9769 6 13.817115 9.268561 20.407057
9770 6 13.817115 26.549752 26.139554
9771 6 13.817115 14.918515 31.8713
9772 6 13.817115 3.287277 37.603797
9773 6 13.817115 20.568468 43.335543
9774 6 13.817115 8.937231 49.067289
9775 6 14.002803 23.730846 19.999577
9776 6 14.002803 12.100187 25.732073
9777 6 14.002803 0.46895 31.463819
9778 6 14.002803 17.749563 37.196316
9779 6 14.002803 6.118904 42.928062
9780 6 14.002803 23.399517 48.660559
9781 6 20.117637 23.39836 20.602918
9782 6 20.117637 11.767701 26.335415
9783 6 20.117637 0.136464 32.067161
9784 6 20.117637 17.417655 37.799658
9785 6 20.117637 5.786418 43.531404
9786 6 20.117637 23.06703 49.2639
9787 6 20.005466 9.206111 20.491855
9788 6 20.005466 26.486724 26.223602
9789 6 20.005466 14.856065 31.956098
9790 6 20.005466 3.224828 37.687844
9791 6 20.005466 20.50544 43.420341
9792 6 20.005466 8.874781 49.152087
9793 6 19.612868 17.590548 23.405756
9794 6 19.612868 5.959311 29.137502
9795 6 19.612868 23.240502 34.869998
9796 6 19.612868 11.609264 40.601745
9797 6 19.612868 28.890455 46.334241
9798 6 19.612868 17.259218 52.065987
9799 6 19.921717 3.218467 23.356978
9800 6 19.921717 20.49908 29.088724
9801 6 19.921717 8.868421 34.821221
9802 6 19.921717 26.149034 40.552967
9803 6 19.921717 14.518375 46.285464
9804 6 19.921717 2.887137 52.01721
9805 3 14.091479 6.422478 21.652013
9806 3 14.091479 23.703091 27.383759
9807 3 14.091479 12.072432 33.116255
9808 3 14.091479 0.441195 38.848001
9809 3 14.091479 17.722386 44.580498
9810 3 14.091479 6.091149 50.312244
9811 3 13.443464 2.362676 20.241214
9812 3 13.443464 19.643289 25.97371
9813 3 13.443464 8.012052 31.705456
9814 3 13.443464 25.293243 37.437202
9815 3 13.443464 13.662006 43.169699
9816 3 13.443464 2.031347 48.901445
9817 3 16.527787 17.728746 23.164869
9818 3 16.527787 6.097509 28.896615
9819 3 16.527787 23.3787 34.629112
9820 3 16.527787 11.747463 40.360858
9821 3 16.527787 0.116226 46.092604
9822 3 16.527787 17.397417 51.825101
9823 3 13.881537 20.870308 21.625748
9824 3 13.881537 9.239071 27.357494
9825 3 13.881537 26.520262 33.08924
9826 3 13.881537 14.889025 38.821737
9827 3 13.881537 3.257787 44.553483
9828 3 13.881537 20.538978 50.285979
9829 3 13.754587 16.580946 20.2172
9830 3 13.754587 4.950287 25.949697
9831 3 13.754587 22.2309 31.681443
9832 3 13.754587 10.599662 37.413189
9833 3 13.754587 27.880853 43.145685
9834 3 13.754587 16.249616 48.877432
9835 3 13.831894 25.095486 22.788156
9836 3 13.831894 13.464249 28.520653
9837 3 13.831894 1.833011 34.252399
9838 3 13.831894 19.114202 39.984895
9839 3 13.831894 7.482965 45.716641
9840 3 13.831894 24.764156 51.449138
9841 3 16.622526 3.117276 23.284937
9842 3 16.622526 20.398467 29.017434
9843 3 16.622526 8.767229 34.74918
9844 3 16.622526 26.04842 40.481677
9845 3 16.622526 14.417183 46.213423
9846 3 16.622526 2.785946 51.945919
9847 3 13.333946 0.233608 24.315271
9848 3 13.333946 17.51422 30.047017
9849 3 13.333946 5.882983 35.779514
9850 3 13.333946 23.164174 41.51126
9851 3 13.333946 11.532937 47.243756
9852 3 13.333946 28.814128 52.975502
9853 3 13.596562 11.073239 22.849691
9854 3 13.596562 28.35443 28.581437
9855 3 13.596562 16.723192 34.313934
9856 3 13.596562 5.092533 40.04568
9857 3 13.596562 22.373146 45.778176
9858 3 13.596562 10.741909 51.509922
9859 3 16.946533 23.958672 20.216449
9860 3 16.946533 12.327435 25.948196
9861 3 16.946533 0.696197 31.680692
9862 3 16.946533 17.977388 37.412438
9863 3 16.946533 6.346151 43.144935
9864 3 16.946533 23.627342 48.876681
9865 3 16.843078 9.498121 20.795027
9866 3 16.843078 26.778734 26.526773
9867 3 16.843078 15.147496 32.258519
9868 3 16.843078 3.516837 37.991016
9869 3 16.843078 20.79745 43.722762
9870 3 16.843078 9.166791 49.455259
9871 3 13.562835 14.900011 24.443594
9872 3 13.562835 3.269352 30.17609
9873 3 13.562835 20.549965 35.907836
9874 3 13.562835 8.918727 41.640333
9875 3 13.562835 26.199918 47.372079
9876 3 13.562835 14.568681 53.104576
9877 3 19.159636 21.003881 22.585541
9878 3 19.159636 9.373222 28.317287
9879 3 19.159636 26.653835 34.049784
9880 3 19.159636 15.023175 39.78153
9881 3 19.159636 3.391938 45.513276
9882 3 19.159636 20.672551 51.245773
9883 3 19.720112 25.004124 23.441776
9884 3 19.720112 13.372887 29.173522
9885 3 19.720112 1.742228 34.906019
9886 3 19.720112 19.022841 40.637765
9887 3 19.720112 7.391604 46.370262
9888 3 19.720112 24.672795 52.102008
9889 3 19.491602 2.137164 20.526375
9890 3 19.491602 19.418355 26.258872
9891 3 19.491602 7.787118 31.990618
9892 3 19.491602 25.068309 37.722364
9893 3 19.491602 13.437071 43.45486
9894 3 19.491602 1.805834 49.186607
9895 3 23.133748 8.96383 20.878324
9896 3 23.133748 26.245021 26.610821
9897 3 23.133748 14.613784 32.342567
9898 3 23.133748 2.982546 38.075064
9899 3 23.133748 20.263737 43.80681
9900 3 23.133748 8.6325 49.539306
9901 3 19.546172 6.325913 21.956685
9902 3 19.546172 23.607104 27.689182
9903 3 19.546172 11.975867 33.420928
9904 3 19.546172 0.344629 39.153424
9905 3 19.546172 17.62582 44.885171
9906 3 19.546172 5.994583 50.616917
9907 3 19.878895 16.550299 20.479098
9908 3 19.878895 4.919062 26.210844
9909 3 19.878895 22.200253 31.943341
9910 3 19.878895 10.569016 37.675087
9911 3 19.878895 27.849629 43.406833
9912 3 19.878895 16.21897 49.13933
9913 3 20.046393 10.226121 23.578353
9914 3 20.046393 27.507312 29.31085
9915 3 20.046393 15.876075 35.042596
9916 3 20.046393 4.244838 40.774342
9917 3 20.046393 21.526029 46.506839
9918 3 20.046393 9.894792 52.238585
9919 3 22.732055 17.853067 23.502561
9920 3 22.732055 6.22183 29.234307
9921 3 22.732055 23.502443 34.966803
9922 3 22.732055 11.871784 40.698549
9923 3 22.732055 0.240547 46.431046
9924 3 22.732055 17.521738 52.162792
9925 3 22.830962 2.995268 22.856445
9926 3 22.830962 20.276459 28.588941
9927 3 22.830962 8.645221 34.320687
9928 3 22.830962 25.925834 40.053184
9929 3 22.830962 14.295175 45.78493
9930 3 22.830962 2.663938 51.517427
9931 3 19.999024 14.391162 24.393315
9932 3 19.999024 2.759925 30.125812
9933 3 19.999024 20.041116 35.857558
9934 3 19.999024 8.409879 41.589304
9935 3 19.999024 25.690492 47.321801
9936 3 19.999024 14.059833 53.053547
9937 3 23.020061 23.849963 20.235961
9938 3 23.020061 12.218726 25.968457
9939 3 23.020061 0.588067 31.700203
9940 3 23.020061 17.86868 37.4327
9941 3 23.020061 6.238021 43.164446
9942 3 23.020061 23.518634 48.896943
9943 3 20.146438 0.542965 24.833064
9944 3 20.146438 17.824156 30.565561
9945 3 20.146438 6.192918 36.297307
9946 3 20.146438 23.474109 42.029053
9947 3 20.146438 11.842872 47.76155
9948 3 20.146438 0.211635 53.493296
9949 1 29.606316 22.377772 24.94938
9950 1 29.606316 10.747113 30.681126
9951 1 29.606316 28.027726 36.413623
9952 1 29.606316 16.396488 42.145369
9953 1 29.606316 4.765829 47.877115
9954 1 29.606316 22.046442 53.609612
9955 1 29.208034 7.661062 24.950881
9956 1 29.208034 24.941675 30.682627
9957 1 29.208034 13.311016 36.414373
9958 1 29.208034 1.679778 42.14687
9959 1 29.208034 18.960391 47.878616
9960 1 29.208034 7.329732 53.611112
9961 1 29.456629 28.21334 21.627999
9962 1 29.456629 16.582102 27.360495
9963 1 29.456629 4.951443 33.092242
9964 1 29.456629 22.232056 38.824738
9965 1 29.456629 10.600819 44.556484
9966 1 29.456629 27.88201 50.288981
9967 1 29.30732 13.346866 21.660267
9968 1 29.30732 1.715629 27.392013
9969 1 29.30732 18.99682 33.12451
9970 1 29.30732 7.365583 38.856256
9971 1 29.30732 24.646196 44.588753
9972 1 29.30732 13.015537 50.320499
9973 1 35.228887 22.405527 24.020354
9974 1 35.228887 10.77429 29.7521
9975 1 35.228887 28.054903 35.483846
9976 1 35.228887 16.424244 41.216343
9977 1 35.228887 4.793006 46.948089
9978 1 35.228887 22.074197 52.680585
9979 1 35.619211 7.754158 24.436089
9980 1 35.619211 25.034771 30.167835
9981 1 35.619211 13.404112 35.900332
9982 1 35.619211 1.772875 41.632078
9983 1 35.619211 19.053487 47.364575
9984 1 35.619211 7.422828 53.096321
9985 1 35.504388 27.625851 21.944678
9986 1 35.504388 15.995192 27.676424
9987 1 35.504388 4.363955 33.408921
9988 1 35.504388 21.645146 39.140667
9989 1 35.504388 10.013908 44.872413
9990 1 35.504388 27.294521 50.60491
9991 1 35.803384 13.241627 21.61224
9992 1 35.803384 1.61039 27.343986
9993 1 35.803384 18.891581 33.075732
9994 1 35.803384 7.260344 38.808229
9995 1 35.803384 24.540957 44.539975
9996 1 35.803384 12.910297 50.272472
9997 4 29.272835 22.834579 23.746449
9998 4 29.272835 11.203342 29.478195
9999 4 29.272835 28.484533 35.210691
10000 4 29.272835 16.853296 40.942438
10001 4 29.272835 5.222637 46.674184
10002 4 29.272835 22.503249 52.40668
10003 4 29.048114 21.356027 25.530959
10004 4 29.048114 9.72479 31.262705
10005 4 29.048114 27.005403 36.995202
10006 4 29.048114 15.374744 42.726948
10007 4 29.048114 3.743506 48.458694
10008 4 29.048114 21.024697 54.191191
10009 4 29.380838 7.162043 23.753203
10010 4 29.380838 24.443234 29.484949
10011 4 29.380838 12.811997 35.217445
10012 4 29.380838 1.18076 40.949191
10013 4 29.380838 18.461951 46.681688
10014 4 29.380838 6.830714 52.413434
10015 4 29.781773 8.827944 25.323092
10016 4 29.781773 26.108557 31.055588
10017 4 29.781773 14.47732 36.787334
10018 4 29.781773 2.846661 42.519081
10019 4 29.781773 20.127273 48.251577
10020 4 29.781773 8.496614 53.983323
10021 4 30.122455 27.766363 22.660584
10022 4 30.122455 16.135125 28.39308
10023 4 30.122455 4.503888 34.124826
10024 4 30.122455 21.785079 39.857323
10025 4 30.122455 10.153842 45.589069
10026 4 30.122455 27.435033 51.321566
10027 4 28.855226 27.446019 20.740246
10028 4 28.855226 15.81536 26.471992
10029 4 28.855226 4.184123 32.204489
10030 4 28.855226 21.465314 37.936235
10031 4 28.855226 9.834077 43.668732
10032 4 28.855226 27.114689 49.400478
10033 4 30.557117 12.907985 21.708294
10034 4 30.557117 1.277326 27.440041
10035 4 30.557117 18.557938 33.172537
10036 4 30.557117 6.927279 38.904283
10037 4 30.557117 24.207892 44.636029
10038 4 30.557117 12.576655 50.368526
10039 4 28.958681 14.319461 20.877574
10040 4 28.958681 2.688802 26.60932
10041 4 28.958681 19.969415 32.341817
10042 4 28.958681 8.338756 38.073563
10043 4 28.958681 25.619369 43.806059
10044 4 28.958681 13.988131 49.537806
10045 4 34.988629 22.126239 25.2503
10046 4 34.988629 10.495002 30.982047
10047 4 34.988629 27.775614 36.713793
10048 4 34.988629 16.144955 42.446289
10049 4 34.988629 4.513718 48.178035
10050 4 34.988629 21.794909 53.910532
10051 4 36.307016 22.065524 23.361481
10052 4 36.307016 10.434865 29.093227
10053 4 36.307016 27.715478 34.825723
10054 4 36.307016 16.084819 40.55747
10055 4 36.307016 4.453581 46.289216
10056 4 36.307016 21.734194 52.021712
10057 4 35.85568 8.620935 25.386127
10058 4 35.85568 25.902126 31.117873
10059 4 35.85568 14.270889 36.85037
10060 4 35.85568 2.639652 42.582116
10061 4 35.85568 19.920843 48.314613
10062 4 35.85568 8.289606 54.046359
10063 4 36.540074 6.968912 23.883026
10064 4 36.540074 24.249525 29.614772
10065 4 36.540074 12.618866 35.347269
10066 4 36.540074 0.987629 41.079015
10067 4 36.540074 18.268242 46.811512
10068 4 36.540074 6.637583 52.543258
10069 4 34.986355 28.775964 21.765327
10070 4 34.986355 17.144727 27.497073
10071 4 34.986355 5.51349 33.228819
10072 4 34.986355 22.794681 38.961316
10073 4 34.986355 11.163444 44.693062
10074 4 34.986355 28.444635 50.425558
10075 4 35.762836 27.034314 23.103334
10076 4 35.762836 15.403655 28.835831
10077 4 35.762836 3.772418 34.567577
10078 4 35.762836 21.053031 40.300074
10079 4 35.762836 9.422372 46.03182
10080 4 35.762836 26.702985 51.764316
10081 4 35.719256 12.083419 22.19457
10082 4 35.719256 0.45276 27.927066
10083 4 35.719256 17.733372 33.658813
10084 4 35.719256 6.102135 39.391309
10085 4 35.719256 23.383326 45.123055
10086 4 35.719256 11.752089 50.854801
10087 4 35.436933 14.413714 22.102268
10088 4 35.436933 2.783055 27.834764
10089 4 35.436933 20.063667 33.56651
10090 4 35.436933 8.43243 39.299007
10091 4 35.436933 25.713621 45.030753
10092 4 35.436933 14.082384 50.762499
10093 2 28.522502 22.356377 23.231657
10094 2 28.522502 10.725718 28.963403
10095 2 28.522502 28.006331 34.6959
10096 2 28.522502 16.375672 40.427646
10097 2 28.522502 4.744435 46.160143
10098 2 28.522502 22.025047 51.891889
10099 2 28.118156 21.026432 25.21428
10100 2 28.118156 9.395195 30.946777
10101 2 28.118156 26.676386 36.678523
10102 2 28.118156 15.045149 42.410269
10103 2 28.118156 3.413911 48.142765
10104 2 28.118156 20.695102 53.874512
10105 2 30.483979 22.790055 25.401886
10106 2 30.483979 11.158818 31.134383
10107 2 30.483979 28.43943 36.866129
10108 2 30.483979 16.808771 42.598626
10109 2 30.483979 5.177534 48.330372
10110 2 30.483979 22.458725 54.062868
10111 2 29.778362 23.594383 23.404255
10112 2 29.778362 11.963724 29.136001
10113 2 29.778362 29.244336 34.867747
10114 2 29.778362 17.613099 40.600244
10115 2 29.778362 5.98244 46.33199
10116 2 29.778362 23.263053 52.064487
10117 2 29.522567 20.887077 26.381941
10118 2 29.522567 9.25584 32.114438
10119 2 29.522567 26.536452 37.846184
10120 2 29.522567 14.905793 43.57793
10121 2 29.522567 3.274556 49.310427
10122 2 29.522567 20.555747 55.042173
10123 2 29.89887 7.726403 23.069565
10124 2 29.89887 25.007594 28.801312
10125 2 29.89887 13.376357 34.533808
10126 2 29.89887 1.745119 40.265554
10127 2 29.89887 19.02631 45.9973
10128 2 29.89887 7.395073 51.729797
10129 2 30.525664 9.081212 24.709244
10130 2 30.525664 26.362403 30.441741
10131 2 30.525664 14.731166 36.173487
10132 2 30.525664 3.099929 41.905983
10133 2 30.525664 20.38112 47.637729
10134 2 30.525664 8.749882 53.370226
10135 2 28.643768 7.178234 25.667537
10136 2 28.643768 24.459425 31.399283
10137 2 28.643768 12.828188 37.131029
10138 2 28.643768 1.197529 42.863526
10139 2 28.643768 18.478142 48.595272
10140 2 28.643768 6.846904 54.327768
10141 2 28.768066 6.453703 23.383243
10142 2 28.768066 23.734894 29.11574
10143 2 28.768066 12.103657 34.847486
10144 2 28.768066 0.472998 40.579982
10145 2 28.768066 17.753611 46.311728
10146 2 28.768066 6.122373 52.043475
10147 2 30.032263 8.888081 26.287388
10148 2 30.032263 26.169272 32.019134
10149 2 30.032263 14.538035 37.75163
10150 2 30.032263 2.907376 43.483377
10151 2 30.032263 20.187988 49.215123
10152 2 30.032263 8.556751 54.947619
10153 2 28.97346 26.41271 20.858063
10154 2 28.97346 14.781472 26.590559
10155 2 28.97346 3.150235 32.322306
10156 2 28.97346 20.431426 38.054802
10157 2 28.97346 8.800189 43.786548
10158 2 28.97346 26.08138 49.518294
10159 2 28.14582 27.797009 20.126399
10160 2 28.14582 16.165772 25.858895
10161 2 28.14582 4.535113 31.590641
10162 2 28.14582 21.815726 37.323138
10163 2 28.14582 10.185067 43.054884
10164 2 28.14582 27.465679 48.78663
10165 2 29.353174 29.300425 21.55971
10166 2 29.353174 17.669188 27.291456
10167 2 29.353174 6.038529 33.023203
10168 2 29.353174 23.319142 38.755699
10169 2 29.353174 11.687904 44.487445
10170 2 29.353174 28.969095 50.219942
10171 2 30.198625 26.796081 22.890964
10172 2 30.198625 15.165422 28.62271
10173 2 30.198625 3.534185 34.354456
10174 2 30.198625 20.815376 40.086953
10175 2 30.198625 9.184138 45.818699
10176 2 30.198625 26.464751 51.551196
10177 2 30.510884 28.464295 23.309701
10178 2 30.510884 16.833057 29.042198
10179 2 30.510884 5.202398 34.773944
10180 2 30.510884 22.483011 40.506441
10181 2 30.510884 10.851774 46.238187
10182 2 30.510884 28.132965 51.969933
10183 2 31.367325 13.365948 21.366851
10184 2 31.367325 1.734711 27.098597
10185 2 31.367325 19.015902 32.831094
10186 2 31.367325 7.384665 38.56284
10187 2 31.367325 24.665277 44.294586
10188 2 31.367325 13.034618 50.027083
10189 2 28.106788 14.819058 21.078688
10190 2 28.106788 3.187821 26.810434
10191 2 28.106788 20.469012 32.542931
10192 2 28.106788 8.837774 38.274677
10193 2 28.106788 26.118387 44.007173
10194 2 28.106788 14.487728 49.738919
10195 2 28.524776 12.817201 22.21333
10196 2 28.524776 1.185964 27.945827
10197 2 28.524776 18.466577 33.677573
10198 2 28.524776 6.835918 39.409319
10199 2 28.524776 24.116531 45.141816
10200 2 28.524776 12.485872 50.873562
10201 2 29.585853 14.912154 20.346273
10202 2 29.585853 3.280917 26.078019
10203 2 29.585853 20.562108 31.810516
10204 2 29.585853 8.93087 37.542262
10205 2 29.585853 26.211483 43.274008
10206 2 29.585853 14.580824 49.006505
10207 2 30.772364 12.255155 22.42495
10208 2 30.772364 0.623918 28.156696
10209 2 30.772364 17.905109 33.889193
10210 2 30.772364 6.273871 39.620939
10211 2 30.772364 23.554484 45.353436
10212 2 30.772364 11.923825 51.085182
10213 2 34.076481 22.376037 25.542216
10214 2 34.076481 10.745378 31.273962
10215 2 34.076481 28.025991 37.006458
10216 2 34.076481 16.394754 42.738205
10217 2 34.076481 4.764095 48.470701
10218 2 34.076481 22.044707 54.202447
10219 2 35.423291 21.502321 25.845387
10220 2 35.423291 9.871662 31.577134
10221 2 35.423291 27.152275 37.30963
10222 2 35.423291 15.521038 43.041376
10223 2 35.423291 3.890379 48.773873
10224 2 35.423291 21.170991 54.505619
10225 2 37.06076 21.481505 23.687916
10226 2 37.06076 9.850846 29.420412
10227 2 37.06076 27.131458 35.152158
10228 2 37.06076 15.500221 40.884655
10229 2 37.06076 3.869562 46.616401
10230 2 37.06076 21.150175 52.348147
10231 2 34.540703 23.083799 23.609121
10232 2 34.540703 11.45314 29.340867
10233 2 34.540703 28.733753 35.073364
10234 2 34.540703 17.102516 40.80511
10235 2 34.540703 5.471857 46.537606
10236 2 34.540703 22.752469 52.269353
10237 2 36.252826 22.475494 22.393432
10238 2 36.252826 10.844835 28.125929
10239 2 36.252826 28.125448 33.857675
10240 2 36.252826 16.49421 39.590172
10241 2 36.252826 4.863551 45.321918
10242 2 36.252826 22.144164 51.054414
10243 2 35.091705 9.199172 25.56773
10244 2 35.091705 26.480363 31.300227
10245 2 35.091705 14.849126 37.031973
10246 2 35.091705 3.218467 42.763719
10247 2 35.091705 20.49908 48.496216
10248 2 35.091705 8.867843 54.227962
10249 2 36.818228 8.825053 25.74483
10250 2 36.818228 26.106244 31.476577
10251 2 36.818228 14.475007 37.209073
10252 2 36.818228 2.844348 42.940819
10253 2 36.818228 20.124961 48.673316
10254 2 36.818228 8.493723 54.405062
10255 2 37.490496 7.029627 24.287505
10256 2 37.490496 24.310818 30.019251
10257 2 37.490496 12.679581 35.751748
10258 2 37.490496 1.048344 41.483494
10259 2 37.490496 18.329535 47.215991
10260 2 37.490496 6.698297 52.947737
10261 2 34.647568 7.679566 23.946062
10262 2 34.647568 24.960178 29.677808
10263 2 34.647568 13.329519 35.410304
10264 2 34.647568 1.698282 41.142051
10265 2 34.647568 18.978895 46.873797
10266 2 34.647568 7.348236 52.606293
10267 2 36.256236 6.297001 23.197888
10268 2 36.256236 23.578192 28.929634
10269 2 36.256236 11.946955 34.662131
10270 2 36.256236 0.316296 40.393877
10271 2 36.256236 17.596908 46.126373
10272 2 36.256236 5.965671 51.85812
10273 2 36.491189 26.294749 23.06056
10274 2 36.491189 14.663512 28.792306
10275 2 36.491189 3.032853 34.524053
10276 2 36.491189 20.313466 40.256549
10277 2 36.491189 8.682807 45.988295
10278 2 36.491189 25.96342 51.720792
10279 2 35.465355 27.387617 24.040615
10280 2 35.465355 15.756958 29.773112
10281 2 35.465355 4.125721 35.504858
10282 2 35.465355 21.406334 41.237355
10283 2 35.465355 9.775675 46.969101
10284 2 35.465355 27.056287 52.701597
10285 2 34.81014 29.113655 20.81754
10286 2 34.81014 17.482417 26.549286
10287 2 34.81014 5.851758 32.281783
10288 2 34.81014 23.132371 38.013529
10289 2 34.81014 11.501134 43.746025
10290 2 34.81014 28.782325 49.477772
10291 2 34.705169 29.405086 22.610305
10292 2 34.705169 17.773849 28.342802
10293 2 34.705169 6.14319 34.074548
10294 2 34.705169 23.423803 39.807045
10295 2 34.705169 11.792565 45.538791
10296 2 34.705169 29.073756 51.270537
10297 2 35.751088 27.038362 21.08169
10298 2 35.751088 15.407125 26.814186
10299 2 35.751088 3.775888 32.545932
10300 2 35.751088 21.057079 38.278429
10301 2 35.751088 9.425841 44.010175
10302 2 35.751088 26.707032 49.741921
10303 2 36.234636 11.263479 21.691785
10304 2 36.234636 57.455941 27.423531
10305 2 36.234636 16.913432 33.155277
10306 2 36.234636 5.282195 38.887774
10307 2 36.234636 22.563386 44.61952
10308 2 36.234636 10.932149 50.352017
10309 2 35.816268 15.243484 21.765327
10310 2 35.816268 3.612825 27.497823
10311 2 35.816268 20.893438 33.229569
10312 2 35.816268 9.262779 38.961316
10313 2 35.816268 26.543391 44.693812
10314 2 35.816268 14.912154 50.425558
10315 2 35.333478 11.834777 23.114591
10316 2 35.333478 0.203539 28.846337
10317 2 35.333478 17.484152 34.578083
10318 2 35.333478 5.853493 40.31058
10319 2 35.333478 23.134106 46.042326
10320 2 35.333478 11.502869 51.774822
10321 2 34.762392 14.417183 22.866951
10322 2 34.762392 2.785946 28.599447
10323 2 34.762392 20.067137 34.331193
10324 2 34.762392 8.4359 40.06369
10325 2 34.762392 25.717091 45.795436
10326 2 34.762392 14.085853 51.527182
10327 2 36.21152 13.269383 20.574402
10328 2 36.21152 1.638724 26.306899
10329 2 36.21152 18.919336 32.038645
10330 2 36.21152 7.288099 37.771142
10331 2 36.21152 24.56929 43.502888
10332 2 36.21152 12.938053 49.235384
10333 6 26.208976 3.45381 22.968258
10334 6 26.208976 20.734422 28.700004
10335 6 26.208976 9.103185 34.432501
10336 6 26.208976 26.384376 40.164247
10337 6 26.208976 14.753139 45.896743
10338 6 26.208976 3.121902 51.62849
10339 6 26.049814 17.689426 23.180628
10340 6 26.049814 6.058189 28.912374
10341 6 26.049814 23.33938 34.644871
10342 6 26.049814 11.708143 40.376617
10343 6 26.049814 0.076906 46.109114
10344 6 26.049814 17.358097 51.84086
10345 6 26.449234 9.268561 20.407057
10346 6 26.449234 26.549752 26.139554
10347 6 26.449234 14.918515 31.8713
10348 6 26.449234 3.287277 37.603797
10349 6 26.449234 20.568468 43.335543
10350 6 26.449234 8.937231 49.067289
10351 6 26.634922 23.730846 19.999577
10352 6 26.634922 12.100187 25.732073
10353 6 26.634922 0.46895 31.463819
10354 6 26.634922 17.749563 37.196316
10355 6 26.634922 6.118904 42.928062
10356 6 26.634922 23.399517 48.660559
10357 6 32.749378 23.39836 20.602918
10358 6 32.749378 11.767701 26.335415
10359 6 32.749378 0.136464 32.067161
10360 6 32.749378 17.417655 37.799658
10361 6 32.749378 5.786418 43.531404
10362 6 32.749378 23.06703 49.2639
10363 6 32.637207 9.206111 20.491855
10364 6 32.637207 26.486724 26.223602
10365 6 32.637207 14.856065 31.956098
10366 6 32.637207 3.224828 37.687844
10367 6 32.637207 20.50544 43.420341
10368 6 32.637207 8.874781 49.152087
10369 6 32.244987 17.590548 23.405756
10370 6 32.244987 5.959311 29.137502
10371 6 32.244987 23.240502 34.869998
10372 6 32.244987 11.609264 40.601745
10373 6 32.244987 28.890455 46.334241
10374 6 32.244987 17.259218 52.065987
10375 6 32.553457 3.218467 23.356978
10376 6 32.553457 20.49908 29.088724
10377 6 32.553457 8.868421 34.821221
10378 6 32.553457 26.149034 40.552967
10379 6 32.553457 14.518375 46.285464
10380 6 32.553457 2.887137 52.01721
10381 3 26.723219 6.422478 21.652013
10382 3 26.723219 23.703091 27.383759
10383 3 26.723219 12.072432 33.116255
10384 3 26.723219 0.441195 38.848001
10385 3 26.723219 17.722386 44.580498
10386 3 26.723219 6.091149 50.312244
10387 3 26.075583 2.362676 20.241214
10388 3 26.075583 19.643289 25.97371
10389 3 26.075583 8.012052 31.705456
10390 3 26.075583 25.293243 37.437202
10391 3 26.075583 13.662006 43.169699
10392 3 26.075583 2.031347 48.901445
10393 3 29.159527 17.728746 23.164869
10394 3 29.159527 6.097509 28.896615
10395 3 29.159527 23.3787 34.629112
10396 3 29.159527 11.747463 40.360858
10397 3 29.159527 0.116226 46.092604
10398 3 29.159527 17.397417 51.825101
10399 3 26.513657 20.870308 21.625748
10400 3 26.513657 9.239071 27.357494
10401 3 26.513657 26.520262 33.08924
10402 3 26.513657 14.889025 38.821737
10403 3 26.513657 3.257787 44.553483
10404 3 26.513657 20.538978 50.285979
10405 3 26.386327 16.580946 20.2172
10406 3 26.386327 4.950287 25.949697
10407 3 26.386327 22.2309 31.681443
10408 3 26.386327 10.599662 37.413189
10409 3 26.386327 27.880853 43.145685
10410 3 26.386327 16.249616 48.877432
10411 3 26.464013 25.095486 22.788156
10412 3 26.464013 13.464249 28.520653
10413 3 26.464013 1.833011 34.252399
10414 3 26.464013 19.114202 39.984895
10415 3 26.464013 7.482965 45.716641
10416 3 26.464013 24.764156 51.449138
10417 3 29.254266 3.117276 23.284937
10418 3 29.254266 20.398467 29.017434
10419 3 29.254266 8.767229 34.74918
10420 3 29.254266 26.04842 40.481677
10421 3 29.254266 14.417183 46.213423
10422 3 29.254266 2.785946 51.945919
10423 3 25.965686 0.233608 24.315271
10424 3 25.965686 17.51422 30.047017
10425 3 25.965686 5.882983 35.779514
10426 3 25.965686 23.164174 41.51126
10427 3 25.965686 11.532937 47.243756
10428 3 25.965686 28.814128 52.975502
10429 3 26.228303 11.073239 22.849691
10430 3 26.228303 28.35443 28.581437
10431 3 26.228303 16.723192 34.313934
10432 3 26.228303 5.092533 40.04568
10433 3 26.228303 22.373146 45.778176
10434 3 26.228303 10.741909 51.509922
10435 3 29.578274 23.958672 20.216449
10436 3 29.578274 12.327435 25.948196
10437 3 29.578274 0.696197 31.680692
10438 3 29.578274 17.977388 37.412438
10439 3 29.578274 6.346151 43.144935
10440 3 29.578274 23.627342 48.876681
10441 3 29.474819 9.498121 20.795027
10442 3 29.474819 26.778734 26.526773
10443 3 29.474819 15.147496 32.258519
10444 3 29.474819 3.516837 37.991016
10445 3 29.474819 20.79745 43.722762
10446 3 29.474819 9.166791 49.455259
10447 3 26.194576 14.900011 24.443594
10448 3 26.194576 3.269352 30.17609
10449 3 26.194576 20.549965 35.907836
10450 3 26.194576 8.918727 41.640333
10451 3 26.194576 26.199918 47.372079
10452 3 26.194576 14.568681 53.104576
10453 3 31.791377 21.003881 22.585541
10454 3 31.791377 9.373222 28.317287
10455 3 31.791377 26.653835 34.049784
10456 3 31.791377 15.023175 39.78153
10457 3 31.791377 3.391938 45.513276
10458 3 31.791377 20.672551 51.245773
10459 3 32.351853 25.004124 23.441776
10460 3 32.351853 13.372887 29.173522
10461 3 32.351853 1.742228 34.906019
10462 3 32.351853 19.022841 40.637765
10463 3 32.351853 7.391604 46.370262
10464 3 32.351853 24.672795 52.102008
10465 3 32.123721 2.137164 20.526375
10466 3 32.123721 19.418355 26.258872
10467 3 32.123721 7.787118 31.990618
10468 3 32.123721 25.068309 37.722364
10469 3 32.123721 13.437071 43.45486
10470 3 32.123721 1.805834 49.186607
10471 3 35.765867 8.96383 20.878324
10472 3 35.765867 26.245021 26.610821
10473 3 35.765867 14.613784 32.342567
10474 3 35.765867 2.982546 38.075064
10475 3 35.765867 20.263737 43.80681
10476 3 35.765867 8.6325 49.539306
10477 3 32.177912 6.325913 21.956685
10478 3 32.177912 23.607104 27.689182
10479 3 32.177912 11.975867 33.420928
10480 3 32.177912 0.344629 39.153424
10481 3 32.177912 17.62582 44.885171
10482 3 32.177912 5.994583 50.616917
10483 3 32.510635 16.550299 20.479098
10484 3 32.510635 4.919062 26.210844
10485 3 32.510635 22.200253 31.943341
10486 3 32.510635 10.569016 37.675087
10487 3 32.510635 27.849629 43.406833
10488 3 32.510635 16.21897 49.13933
10489 3 32.678134 10.226121 23.578353
10490 3 32.678134 27.507312 29.31085
10491 3 32.678134 15.876075 35.042596
10492 3 32.678134 4.244838 40.774342
10493 3 32.678134 21.526029 46.506839
10494 3 32.678134 9.894792 52.238585
10495 3 35.363795 17.853067 23.502561
10496 3 35.363795 6.22183 29.234307
10497 3 35.363795 23.502443 34.966803
10498 3 35.363795 11.871784 40.698549
10499 3 35.363795 0.240547 46.431046
10500 3 35.363795 17.521738 52.162792
10501 3 35.462702 2.995268 22.856445
10502 3 35.462702 20.276459 28.588941
10503 3 35.462702 8.645221 34.320687
10504 3 35.462702 25.925834 40.053184
10505 3 35.462702 14.295175 45.78493
10506 3 35.462702 2.663938 51.517427
10507 3 32.631143 14.391162 24.393315
10508 3 32.631143 2.759925 30.125812
10509 3 32.631143 20.041116 35.857558
10510 3 32.631143 8.409879 41.589304
10511 3 32.631143 25.690492 47.321801
10512 3 32.631143 14.059833 53.053547
10513 3 35.651802 23.849963 20.235961
10514 3 35.651802 12.218726 25.968457
10515 3 35.651802 0.588067 31.700203
10516 3 35.651802 17.86868 37.4327
10517 3 35.651802 6.238021 43.164446
10518 3 35.651802 23.518634 48.896943
10519 3 32.778557 0.542965 24.833064
10520 3 32.778557 17.824156 30.565561
10521 3 32.778557 6.192918 36.297307
10522 3 32.778557 23.474109 42.029053
10523 3 32.778557 11.842872 47.76155
10524 3 32.778557 0.211635 53.493296
10525 1 4.342836 51.289622 24.94938
10526 1 4.342836 39.658963 30.681126
10527 1 4.342836 56.939576 36.413623
10528 1 4.342836 45.308338 42.145369
10529 1 4.342836 33.677679 47.877115
10530 1 4.342836 50.958292 53.609612
10531 1 3.944174 36.572912 24.950881
10532 1 3.944174 53.853525 30.682627
10533 1 3.944174 42.222866 36.414373
10534 1 3.944174 30.591628 42.14687
10535 1 3.944174 47.872241 47.878616
10536 1 3.944174 36.241582 53.611112
10537 1 4.192769 57.12519 21.627999
10538 1 4.192769 45.493952 27.360495
10539 1 4.192769 33.863293 33.092242
10540 1 4.192769 51.143906 38.824738
10541 1 4.192769 39.512669 44.556484
10542 1 4.192769 56.79386 50.288981
10543 1 4.043461 42.258716 21.660267
10544 1 4.043461 30.627479 27.392013
10545 1 4.043461 47.90867 33.12451
10546 1 4.043461 36.277433 38.856256
10547 1 4.043461 53.558046 44.588753
10548 1 4.043461 41.927387 50.320499
10549 1 9.965027 51.317377 24.020354
10550 1 9.965027 39.68614 29.7521
10551 1 9.965027 56.966753 35.483846
10552 1 9.965027 45.336094 41.216343
10553 1 9.965027 33.704856 46.948089
10554 1 9.965027 50.986047 52.680585
10555 1 10.355731 36.666008 24.436089
10556 1 10.355731 53.946621 30.167835
10557 1 10.355731 42.315962 35.900332
10558 1 10.355731 30.684725 41.632078
10559 1 10.355731 47.965337 47.364575
10560 1 10.355731 36.334678 53.096321
10561 1 10.240528 56.537701 21.944678
10562 1 10.240528 44.907042 27.676424
10563 1 10.240528 33.275805 33.408921
10564 1 10.240528 50.556996 39.140667
10565 1 10.240528 38.925758 44.872413
10566 1 10.240528 56.206371 50.60491
10567 1 10.539524 42.153477 21.61224
10568 1 10.539524 30.52224 27.343986
10569 1 10.539524 47.803431 33.075732
10570 1 10.539524 36.172194 38.808229
10571 1 10.539524 53.452807 44.539975
10572 1 10.539524 41.822147 50.272472
10573 4 4.008976 51.746429 23.746449
10574 4 4.008976 40.115192 29.478195
10575 4 4.008976 57.396383 35.210691
10576 4 4.008976 45.765146 40.942438
10577 4 4.008976 34.134487 46.674184
10578 4 4.008976 51.415099 52.40668
10579 4 3.784255 50.267877 25.530959
10580 4 3.784255 38.63664 31.262705
10581 4 3.784255 55.917253 36.995202
10582 4 3.784255 44.286594 42.726948
10583 4 3.784255 32.655356 48.458694
10584 4 3.784255 49.936547 54.191191
10585 4 4.117357 36.073893 23.753203
10586 4 4.117357 53.355084 29.484949
10587 4 4.117357 41.723847 35.217445
10588 4 4.117357 30.09261 40.949191
10589 4 4.117357 47.373801 46.681688
10590 4 4.117357 35.742564 52.413434
10591 4 4.518292 37.739794 25.323092
10592 4 4.518292 55.020407 31.055588
10593 4 4.518292 43.38917 36.787334
10594 4 4.518292 31.758511 42.519081
10595 4 4.518292 49.039123 48.251577
10596 4 4.518292 37.408464 53.983323
10597 4 4.858595 56.678213 22.660584
10598 4 4.858595 45.046975 28.39308
10599 4 4.858595 33.415738 34.124826
10600 4 4.858595 50.696929 39.857323
10601 4 4.858595 39.065692 45.589069
10602 4 4.858595 56.346883 51.321566
10603 4 3.591366 56.357869 20.740246
10604 4 3.591366 44.72721 26.471992
10605 4 3.591366 33.095973 32.204489
10606 4 3.591366 50.377164 37.936235
10607 4 3.591366 38.745927 43.668732
10608 4 3.591366 56.026539 49.400478
10609 4 5.293257 41.819835 21.708294
10610 4 5.293257 30.189176 27.440041
10611 4 5.293257 47.469788 33.172537
10612 4 5.293257 35.839129 38.904283
10613 4 5.293257 53.119742 44.636029
10614 4 5.293257 41.488505 50.368526
10615 4 3.694821 43.231311 20.877574
10616 4 3.694821 31.600652 26.60932
10617 4 3.694821 48.881265 32.341817
10618 4 3.694821 37.250606 38.073563
10619 4 3.694821 54.531219 43.806059
10620 4 3.694821 42.899981 49.537806
10621 4 9.724769 51.038089 25.2503
10622 4 9.724769 39.406852 30.982047
10623 4 9.724769 56.687464 36.713793
10624 4 9.724769 45.056805 42.446289
10625 4 9.724769 33.425568 48.178035
10626 4 9.724769 50.706759 53.910532
10627 4 11.043157 50.977374 23.361481
10628 4 11.043157 39.346715 29.093227
10629 4 11.043157 56.627328 34.825723
10630 4 11.043157 44.996669 40.55747
10631 4 11.043157 33.365431 46.289216
10632 4 11.043157 50.646044 52.021712
10633 4 10.59182 37.532785 25.386127
10634 4 10.59182 54.813976 31.117873
10635 4 10.59182 43.182739 36.85037
10636 4 10.59182 31.551502 42.582116
10637 4 10.59182 48.832693 48.314613
10638 4 10.59182 37.201456 54.046359
10639 4 11.276215 35.880762 23.883026
10640 4 11.276215 53.161375 29.614772
10641 4 11.276215 41.530716 35.347269
10642 4 11.276215 29.899479 41.079015
10643 4 11.276215 47.180092 46.811512
10644 4 11.276215 35.549433 52.543258
10645 4 9.722495 57.687814 21.765327
10646 4 9.722495 46.056577 27.497073
10647 4 9.722495 34.42534 33.228819
10648 4 9.722495 51.706531 38.961316
10649 4 9.722495 40.075294 44.693062
10650 4 9.722495 57.356485 50.425558
10651 4 10.498976 55.946164 23.103334
10652 4 10.498976 44.315505 28.835831
10653 4 10.498976 32.684268 34.567577
10654 4 10.498976 49.964881 40.300074
10655 4 10.498976 38.334222 46.03182
10656 4 10.498976 55.614835 51.764316
10657 4 10.455396 40.995269 22.19457
10658 4 10.455396 29.36461 27.927066
10659 4 10.455396 46.645222 33.658813
10660 4 10.455396 35.013985 39.391309
10661 4 10.455396 52.295176 45.123055
10662 4 10.455396 40.663939 50.854801
10663 4 10.173074 43.325564 22.102268
10664 4 10.173074 31.694905 27.834764
10665 4 10.173074 48.975517 33.56651
10666 4 10.173074 37.34428 39.299007
10667 4 10.173074 54.625471 45.030753
10668 4 10.173074 42.994234 50.762499
10669 2 3.258643 51.268227 23.231657
10670 2 3.258643 39.637568 28.963403
10671 2 3.258643 56.918181 34.6959
10672 2 3.258643 45.287522 40.427646
10673 2 3.258643 33.656285 46.160143
10674 2 3.258643 50.936897 51.891889
10675 2 2.854297 49.938282 25.21428
10676 2 2.854297 38.307045 30.946777
10677 2 2.854297 55.588236 36.678523
10678 2 2.854297 43.956999 42.410269
10679 2 2.854297 32.325761 48.142765
10680 2 2.854297 49.606952 53.874512
10681 2 5.220119 51.701905 25.401886
10682 2 5.220119 40.070668 31.134383
10683 2 5.220119 57.35128 36.866129
10684 2 5.220119 45.720621 42.598626
10685 2 5.220119 34.089384 48.330372
10686 2 5.220119 51.370575 54.062868
10687 2 4.514882 52.506233 23.404255
10688 2 4.514882 40.875574 29.136001
10689 2 4.514882 0.332486 34.867747
10690 2 4.514882 46.524949 40.600244
10691 2 4.514882 34.89429 46.33199
10692 2 4.514882 52.174903 52.064487
10693 2 4.258708 49.798927 26.381941
10694 2 4.258708 38.16769 32.114438
10695 2 4.258708 55.448302 37.846184
10696 2 4.258708 43.817643 43.57793
10697 2 4.258708 32.186406 49.310427
10698 2 4.258708 49.467597 55.042173
10699 2 4.635011 36.638253 23.069565
10700 2 4.635011 53.919444 28.801312
10701 2 4.635011 42.288207 34.533808
10702 2 4.635011 30.656969 40.265554
10703 2 4.635011 47.93816 45.9973
10704 2 4.635011 36.306923 51.729797
10705 2 5.261804 37.993062 24.709244
10706 2 5.261804 55.274253 30.441741
10707 2 5.261804 43.643016 36.173487
10708 2 5.261804 32.011779 41.905983
10709 2 5.261804 49.29297 47.637729
10710 2 5.261804 37.661732 53.370226
10711 2 3.379909 36.090084 25.667537
10712 2 3.379909 53.371275 31.399283
10713 2 3.379909 41.740038 37.131029
10714 2 3.379909 30.109379 42.863526
10715 2 3.379909 47.389992 48.595272
10716 2 3.379909 35.758754 54.327768
10717 2 3.504585 35.365553 23.383243
10718 2 3.504585 52.646744 29.11574
10719 2 3.504585 41.015507 34.847486
10720 2 3.504585 29.384848 40.579982
10721 2 3.504585 46.665461 46.311728
10722 2 3.504585 35.034223 52.043475
10723 2 4.768403 37.799931 26.287388
10724 2 4.768403 55.081122 32.019134
10725 2 4.768403 43.449885 37.75163
10726 2 4.768403 31.819226 43.483377
10727 2 4.768403 49.099838 49.215123
10728 2 4.768403 37.468601 54.947619
10729 2 3.7096 55.32456 20.858063
10730 2 3.7096 43.693322 26.590559
10731 2 3.7096 32.062085 32.322306
10732 2 3.7096 49.343276 38.054802
10733 2 3.7096 37.712039 43.786548
10734 2 3.7096 54.99323 49.518294
10735 2 2.88196 56.708859 20.126399
10736 2 2.88196 45.077622 25.858895
10737 2 2.88196 33.446963 31.590641
10738 2 2.88196 50.727576 37.323138
10739 2 2.88196 39.096917 43.054884
10740 2 2.88196 56.377529 48.78663
10741 2 4.089693 0.388575 21.55971
10742 2 4.089693 46.581038 27.291456
10743 2 4.089693 34.950379 33.023203
10744 2 4.089693 52.230992 38.755699
10745 2 4.089693 40.599754 44.487445
10746 2 4.089693 0.057245 50.219942
10747 2 4.934765 55.707931 22.890964
10748 2 4.934765 44.077272 28.62271
10749 2 4.934765 32.446035 34.354456
10750 2 4.934765 49.727226 40.086953
10751 2 4.934765 38.095988 45.818699
10752 2 4.934765 55.376601 51.551196
10753 2 5.247025 57.376145 23.309701
10754 2 5.247025 45.744907 29.042198
10755 2 5.247025 34.114248 34.773944
10756 2 5.247025 51.394861 40.506441
10757 2 5.247025 39.763624 46.238187
10758 2 5.247025 57.044815 51.969933
10759 2 6.103844 42.277798 21.366851
10760 2 6.103844 30.646561 27.098597
10761 2 6.103844 47.927752 32.831094
10762 2 6.103844 36.296515 38.56284
10763 2 6.103844 53.577127 44.294586
10764 2 6.103844 41.946468 50.027083
10765 2 2.842928 43.730908 21.078688
10766 2 2.842928 32.099671 26.810434
10767 2 2.842928 49.380862 32.542931
10768 2 2.842928 37.749624 38.274677
10769 2 2.842928 55.030237 44.007173
10770 2 2.842928 43.399578 49.738919
10771 2 3.261295 41.729051 22.21333
10772 2 3.261295 30.097814 27.945827
10773 2 3.261295 47.378427 33.677573
10774 2 3.261295 35.747768 39.409319
10775 2 3.261295 53.028381 45.141816
10776 2 3.261295 41.397722 50.873562
10777 2 4.321993 43.824004 20.346273
10778 2 4.321993 32.192767 26.078019
10779 2 4.321993 49.473958 31.810516
10780 2 4.321993 37.84272 37.542262
10781 2 4.321993 55.123333 43.274008
10782 2 4.321993 43.492674 49.006505
10783 2 5.508504 41.167005 22.42495
10784 2 5.508504 29.535768 28.156696
10785 2 5.508504 46.816959 33.889193
10786 2 5.508504 35.185721 39.620939
10787 2 5.508504 52.466334 45.353436
10788 2 5.508504 40.835675 51.085182
10789 2 8.812622 51.287887 25.542216
10790 2 8.812622 39.657228 31.273962
10791 2 8.812622 56.937841 37.006458
10792 2 8.812622 45.306604 42.738205
10793 2 8.812622 33.675945 48.470701
10794 2 8.812622 50.956557 54.202447
10795 2 10.159431 50.414171 25.845387
10796 2 10.159431 38.783512 31.577134
10797 2 10.159431 56.064125 37.30963
10798 2 10.159431 44.432888 43.041376
10799 2 10.159431 32.802229 48.773873
10800 2 10.159431 50.082841 54.505619
10801 2 11.797279 50.393355 23.687916
10802 2 11.797279 38.762696 29.420412
10803 2 11.797279 56.043308 35.152158
10804 2 11.797279 44.412071 40.884655
10805 2 11.797279 32.781412 46.616401
10806 2 11.797279 50.062025 52.348147
10807 2 9.276843 51.995649 23.609121
10808 2 9.276843 40.36499 29.340867
10809 2 9.276843 57.645603 35.073364
10810 2 9.276843 46.014366 40.80511
10811 2 9.276843 34.383707 46.537606
10812 2 9.276843 51.664319 52.269353
10813 2 10.988966 51.387344 22.393432
10814 2 10.988966 39.756685 28.125929
10815 2 10.988966 57.037298 33.857675
10816 2 10.988966 45.40606 39.590172
10817 2 10.988966 33.775401 45.321918
10818 2 10.988966 51.056014 51.054414
10819 2 9.827845 38.111022 25.56773
10820 2 9.827845 55.392213 31.300227
10821 2 9.827845 43.760976 37.031973
10822 2 9.827845 32.130317 42.763719
10823 2 9.827845 49.41093 48.496216
10824 2 9.827845 37.779693 54.227962
10825 2 11.554368 37.736903 25.74483
10826 2 11.554368 55.018094 31.476577
10827 2 11.554368 43.386857 37.209073
10828 2 11.554368 31.756198 42.940819
10829 2 11.554368 49.036811 48.673316
10830 2 11.554368 37.405573 54.405062
10831 2 12.227015 35.941477 24.287505
10832 2 12.227015 53.222668 30.019251
10833 2 12.227015 41.591431 35.751748
10834 2 12.227015 29.960194 41.483494
10835 2 12.227015 47.241385 47.215991
10836 2 12.227015 35.610147 52.947737
10837 2 9.383708 36.591416 23.946062
10838 2 9.383708 53.872028 29.677808
10839 2 9.383708 42.241369 35.410304
10840 2 9.383708 30.610132 41.142051
10841 2 9.383708 47.890745 46.873797
10842 2 9.383708 36.260086 52.606293
10843 2 10.992377 35.208851 23.197888
10844 2 10.992377 52.490042 28.929634
10845 2 10.992377 40.858805 34.662131
10846 2 10.992377 29.228146 40.393877
10847 2 10.992377 46.508758 46.126373
10848 2 10.992377 34.877521 51.85812
10849 2 11.227329 55.206599 23.06056
10850 2 11.227329 43.575362 28.792306
10851 2 11.227329 31.944703 34.524053
10852 2 11.227329 49.225316 40.256549
10853 2 11.227329 37.594657 45.988295
10854 2 11.227329 54.87527 51.720792
10855 2 10.201496 56.299467 24.040615
10856 2 10.201496 44.668808 29.773112
10857 2 10.201496 33.037571 35.504858
10858 2 10.201496 50.318184 41.237355
10859 2 10.201496 38.687525 46.969101
10860 2 10.201496 55.968137 52.701597
10861 2 9.546281 0.201805 20.81754
10862 2 9.546281 46.394267 26.549286
10863 2 9.546281 34.763608 32.281783
10864 2 9.546281 52.044221 38.013529
10865 2 9.546281 40.412984 43.746025
10866 2 9.546281 57.694175 49.477772
10867 2 9.441689 0.493236 22.610305
10868 2 9.441689 46.685699 28.342802
10869 2 9.441689 35.05504 34.074548
10870 2 9.441689 52.335653 39.807045
10871 2 9.441689 40.704415 45.538791
10872 2 9.441689 0.161906 51.270537
10873 2 10.487607 55.950212 21.08169
10874 2 10.487607 44.318975 26.814186
10875 2 10.487607 32.687738 32.545932
10876 2 10.487607 49.968929 38.278429
10877 2 10.487607 38.337691 44.010175
10878 2 10.487607 55.618882 49.741921
10879 2 10.970776 40.175329 21.691785
10880 2 10.970776 28.544091 27.423531
10881 2 10.970776 45.825282 33.155277
10882 2 10.970776 34.194045 38.887774
10883 2 10.970776 51.475236 44.61952
10884 2 10.970776 39.843999 50.352017
10885 2 10.552788 44.155334 21.765327
10886 2 10.552788 32.524675 27.497823
10887 2 10.552788 49.805288 33.229569
10888 2 10.552788 38.174629 38.961316
10889 2 10.552788 55.455241 44.693812
10890 2 10.552788 43.824004 50.425558
10891 2 10.069619 40.746627 23.114591
10892 2 10.069619 29.115389 28.846337
10893 2 10.069619 46.396002 34.578083
10894 2 10.069619 34.765343 40.31058
10895 2 10.069619 52.045956 46.042326
10896 2 10.069619 40.414719 51.774822
10897 2 9.498911 43.329033 22.866951
10898 2 9.498911 31.697796 28.599447
10899 2 9.498911 48.978987 34.331193
10900 2 9.498911 37.34775 40.06369
10901 2 9.498911 54.628941 45.795436
10902 2 9.498911 42.997703 51.527182
10903 2 10.948039 42.181233 20.574402
10904 2 10.948039 30.550574 26.306899
10905 2 10.948039 47.831186 32.038645
10906 2 10.948039 36.199949 37.771142
10907 2 10.948039 53.48114 43.502888
10908 2 10.948039 41.849903 49.235384
10909 6 0.945116 32.36566 22.968258
10910 6 0.945116 49.646272 28.700004
10911 6 0.945116 38.015035 34.432501
10912 6 0.945116 55.296226 40.164247
10913 6 0.945116 43.664989 45.896743
10914 6 0.945116 32.033752 51.62849
10915 6 0.786334 46.601276 23.180628
10916 6 0.786334 34.970039 28.912374
10917 6 0.786334 52.25123 34.644871
10918 6 0.786334 40.619993 40.376617
10919 6 0.786334 28.988756 46.109114
10920 6 0.786334 46.269947 51.84086
10921 6 1.185374 38.180411 20.407057
10922 6 1.185374 55.461602 26.139554
10923 6 1.185374 43.830365 31.8713
10924 6 1.185374 32.199127 37.603797
10925 6 1.185374 49.480318 43.335543
10926 6 1.185374 37.849081 49.067289
10927 6 1.371063 52.642696 19.999577
10928 6 1.371063 41.012037 25.732073
10929 6 1.371063 29.3808 31.463819
10930 6 1.371063 46.661413 37.196316
10931 6 1.371063 35.030754 42.928062
10932 6 1.371063 52.311367 48.660559
10933 6 7.485897 52.31021 20.602918
10934 6 7.485897 40.679551 26.335415
10935 6 7.485897 29.048314 32.067161
10936 6 7.485897 46.329505 37.799658
10937 6 7.485897 34.698268 43.531404
10938 6 7.485897 51.97888 49.2639
10939 6 7.373347 38.117961 20.491855
10940 6 7.373347 55.398574 26.223602
10941 6 7.373347 43.767915 31.956098
10942 6 7.373347 32.136678 37.687844
10943 6 7.373347 49.41729 43.420341
10944 6 7.373347 37.786631 49.152087
10945 6 6.981127 46.502398 23.405756
10946 6 6.981127 34.871161 29.137502
10947 6 6.981127 52.152352 34.869998
10948 6 6.981127 40.521114 40.601745
10949 6 6.981127 57.802305 46.334241
10950 6 6.981127 46.171068 52.065987
10951 6 7.289598 32.130317 23.356978
10952 6 7.289598 49.41093 29.088724
10953 6 7.289598 37.780271 34.821221
10954 6 7.289598 55.060884 40.552967
10955 6 7.289598 43.430225 46.285464
10956 6 7.289598 31.798987 52.01721
10957 3 1.459739 35.334328 21.652013
10958 3 1.459739 52.614941 27.383759
10959 3 1.459739 40.984282 33.116255
10960 3 1.459739 29.353045 38.848001
10961 3 1.459739 46.634236 44.580498
10962 3 1.459739 35.002999 50.312244
10963 3 0.811724 31.274526 20.241214
10964 3 0.811724 48.555139 25.97371
10965 3 0.811724 36.923902 31.705456
10966 3 0.811724 54.205093 37.437202
10967 3 0.811724 42.573856 43.169699
10968 3 0.811724 30.943197 48.901445
10969 3 3.895668 46.640596 23.164869
10970 3 3.895668 35.009359 28.896615
10971 3 3.895668 52.29055 34.629112
10972 3 3.895668 40.659313 40.360858
10973 3 3.895668 29.028076 46.092604
10974 3 3.895668 46.309267 51.825101
10975 3 1.249797 49.782158 21.625748
10976 3 1.249797 38.150921 27.357494
10977 3 1.249797 55.432112 33.08924
10978 3 1.249797 43.800875 38.821737
10979 3 1.249797 32.169637 44.553483
10980 3 1.249797 49.450828 50.285979
10981 3 1.122847 45.492796 20.2172
10982 3 1.122847 33.862137 25.949697
10983 3 1.122847 51.14275 31.681443
10984 3 1.122847 39.511512 37.413189
10985 3 1.122847 56.792703 43.145685
10986 3 1.122847 45.161466 48.877432
10987 3 1.200154 54.007336 22.788156
10988 3 1.200154 42.376099 28.520653
10989 3 1.200154 30.744861 34.252399
10990 3 1.200154 48.026052 39.984895
10991 3 1.200154 36.394815 45.716641
10992 3 1.200154 53.676006 51.449138
10993 3 3.990786 32.029126 23.284937
10994 3 3.990786 49.310317 29.017434
10995 3 3.990786 37.679079 34.74918
10996 3 3.990786 54.96027 40.481677
10997 3 3.990786 43.329033 46.213423
10998 3 3.990786 31.697796 51.945919
10999 3 0.701827 29.145458 24.315271
11000 3 0.701827 46.42607 30.047017
11001 3 0.701827 34.794833 35.779514
11002 3 0.701827 52.076024 41.51126
11003 3 0.701827 40.444787 47.243756
11004 3 0.701827 57.725978 52.975502
11005 3 0.964443 39.985089 22.849691
11006 3 0.964443 57.26628 28.581437
11007 3 0.964443 45.635042 34.313934
11008 3 0.964443 34.004383 40.04568
11009 3 0.964443 51.284996 45.778176
11010 3 0.964443 39.653759 51.509922
11011 3 4.314793 52.870522 20.216449
11012 3 4.314793 41.239285 25.948196
11013 3 4.314793 29.608047 31.680692
11014 3 4.314793 46.889238 37.412438
11015 3 4.314793 35.258001 43.144935
11016 3 4.314793 52.539192 48.876681
11017 3 4.210959 38.409971 20.795027
11018 3 4.210959 55.690584 26.526773
11019 3 4.210959 44.059346 32.258519
11020 3 4.210959 32.428687 37.991016
11021 3 4.210959 49.7093 43.722762
11022 3 4.210959 38.078641 49.455259
11023 3 0.931095 43.811861 24.443594
11024 3 0.931095 32.181202 30.17609
11025 3 0.931095 49.461815 35.907836
11026 3 0.931095 37.830577 41.640333
11027 3 0.931095 55.111768 47.372079
11028 3 0.931095 43.480531 53.104576
11029 3 6.527896 49.915731 22.585541
11030 3 6.527896 38.285072 28.317287
11031 3 6.527896 55.565685 34.049784
11032 3 6.527896 43.935025 39.78153
11033 3 6.527896 32.303788 45.513276
11034 3 6.527896 49.584401 51.245773
11035 3 7.088372 53.915974 23.441776
11036 3 7.088372 42.284737 29.173522
11037 3 7.088372 30.654078 34.906019
11038 3 7.088372 47.934691 40.637765
11039 3 7.088372 36.303454 46.370262
11040 3 7.088372 53.584645 52.102008
11041 3 6.859862 31.049014 20.526375
11042 3 6.859862 48.330205 26.258872
11043 3 6.859862 36.698968 31.990618
11044 3 6.859862 53.980159 37.722364
11045 3 6.859862 42.348921 43.45486
11046 3 6.859862 30.717684 49.186607
11047 3 10.502008 37.87568 20.878324
11048 3 10.502008 55.156871 26.610821
11049 3 10.502008 43.525634 32.342567
11050 3 10.502008 31.894396 38.075064
11051 3 10.502008 49.175587 43.80681
11052 3 10.502008 37.54435 49.539306
11053 3 6.914052 35.237763 21.956685
11054 3 6.914052 52.518954 27.689182
11055 3 6.914052 40.887717 33.420928
11056 3 6.914052 29.256479 39.153424
11057 3 6.914052 46.53767 44.885171
11058 3 6.914052 34.906433 50.616917
11059 3 7.246776 45.462149 20.479098
11060 3 7.246776 33.830912 26.210844
11061 3 7.246776 51.112103 31.943341
11062 3 7.246776 39.480866 37.675087
11063 3 7.246776 56.761479 43.406833
11064 3 7.246776 45.13082 49.13933
11065 3 7.414274 39.137971 23.578353
11066 3 7.414274 56.419162 29.31085
11067 3 7.414274 44.787925 35.042596
11068 3 7.414274 33.156688 40.774342
11069 3 7.414274 50.437879 46.506839
11070 3 7.414274 38.806642 52.238585
11071 3 10.100314 46.764917 23.502561
11072 3 10.100314 35.13368 29.234307
11073 3 10.100314 52.414293 34.966803
11074 3 10.100314 40.783634 40.698549
11075 3 10.100314 29.152397 46.431046
11076 3 10.100314 46.433588 52.162792
11077 3 10.199222 31.907118 22.856445
11078 3 10.199222 49.188309 28.588941
11079 3 10.199222 37.557071 34.320687
11080 3 10.199222 54.837684 40.053184
11081 3 10.199222 43.207025 45.78493
11082 3 10.199222 31.575788 51.517427
11083 3 7.367284 43.303012 24.393315
11084 3 7.367284 31.671775 30.125812
11085 3 7.367284 48.952966 35.857558
11086 3 7.367284 37.321729 41.589304
11087 3 7.367284 54.602342 47.321801
11088 3 7.367284 42.971683 53.053547
11089 3 10.387942 52.761813 20.235961
11090 3 10.387942 41.130576 25.968457
11091 3 10.387942 29.499917 31.700203
11092 3 10.387942 46.78053 37.4327
11093 3 10.387942 35.149871 43.164446
11094 3 10.387942 52.430484 48.896943
11095 3 7.514697 29.454815 24.833064
11096 3 7.514697 46.736006 30.565561
11097 3 7.514697 35.104768 36.297307
11098 3 7.514697 52.385959 42.029053
11099 3 7.514697 40.754722 47.76155
11100 3 7.514697 29.123485 53.493296
11101 1 16.974576 51.289622 24.94938
11102 1 16.974576 39.658963 30.681126
11103 1 16.974576 56.939576 36.413623
11104 1 16.974576 45.308338 42.145369
11105 1 16.974576 33.677679 47.877115
11106 1 16.974576 50.958292 53.609612
11107 1 16.576293 36.572912 24.950881
11108 1 16.576293 53.853525 30.682627
11109 1 16.576293 42.222866 36.414373
11110 1 16.576293 30.591628 42.14687
11111 1 16.576293 47.872241 47.878616
11112 1 16.576293 36.241582 53.611112
11113 1 16.824888 57.12519 21.627999
11114 1 16.824888 45.493952 27.360495
11115 1 16.824888 33.863293 33.092242
11116 1 16.824888 51.143906 38.824738
11117 1 16.824888 39.512669 44.556484
11118 1 16.824888 56.79386 50.288981
11119 1 16.675201 42.258716 21.660267
11120 1 16.675201 30.627479 27.392013
11121 1 16.675201 47.90867 33.12451
11122 1 16.675201 36.277433 38.856256
11123 1 16.675201 53.558046 44.588753
11124 1 16.675201 41.927387 50.320499
11125 1 22.597146 51.317377 24.020354
11126 1 22.597146 39.68614 29.7521
11127 1 22.597146 56.966753 35.483846
11128 1 22.597146 45.336094 41.216343
11129 1 22.597146 33.704856 46.948089
11130 1 22.597146 50.986047 52.680585
11131 1 22.987471 36.666008 24.436089
11132 1 22.987471 53.946621 30.167835
11133 1 22.987471 42.315962 35.900332
11134 1 22.987471 30.684725 41.632078
11135 1 22.987471 47.965337 47.364575
11136 1 22.987471 36.334678 53.096321
11137 1 22.872268 56.537701 21.944678
11138 1 22.872268 44.907042 27.676424
11139 1 22.872268 33.275805 33.408921
11140 1 22.872268 50.556996 39.140667
11141 1 22.872268 38.925758 44.872413
11142 1 22.872268 56.206371 50.60491
11143 1 23.171265 42.153477 21.61224
11144 1 23.171265 30.52224 27.343986
11145 1 23.171265 47.803431 33.075732
11146 1 23.171265 36.172194 38.808229
11147 1 23.171265 53.452807 44.539975
11148 1 23.171265 41.822147 50.272472
11149 4 16.640716 51.746429 23.746449
11150 4 16.640716 40.115192 29.478195
11151 4 16.640716 57.396383 35.210691
11152 4 16.640716 45.765146 40.942438
11153 4 16.640716 34.134487 46.674184
11154 4 16.640716 51.415099 52.40668
11155 4 16.416374 50.267877 25.530959
11156 4 16.416374 38.63664 31.262705
11157 4 16.416374 55.917253 36.995202
11158 4 16.416374 44.286594 42.726948
11159 4 16.416374 32.655356 48.458694
11160 4 16.416374 49.936547 54.191191
11161 4 16.749097 36.073893 23.753203
11162 4 16.749097 53.355084 29.484949
11163 4 16.749097 41.723847 35.217445
11164 4 16.749097 30.09261 40.949191
11165 4 16.749097 47.373801 46.681688
11166 4 16.749097 35.742564 52.413434
11167 4 17.150033 37.739794 25.323092
11168 4 17.150033 55.020407 31.055588
11169 4 17.150033 43.38917 36.787334
11170 4 17.150033 31.758511 42.519081
11171 4 17.150033 49.039123 48.251577
11172 4 17.150033 37.408464 53.983323
11173 4 17.490714 56.678213 22.660584
11174 4 17.490714 45.046975 28.39308
11175 4 17.490714 33.415738 34.124826
11176 4 17.490714 50.696929 39.857323
11177 4 17.490714 39.065692 45.589069
11178 4 17.490714 56.346883 51.321566
11179 4 16.223485 56.357869 20.740246
11180 4 16.223485 44.72721 26.471992
11181 4 16.223485 33.095973 32.204489
11182 4 16.223485 50.377164 37.936235
11183 4 16.223485 38.745927 43.668732
11184 4 16.223485 56.026539 49.400478
11185 4 17.924998 41.819835 21.708294
11186 4 17.924998 30.189176 27.440041
11187 4 17.924998 47.469788 33.172537
11188 4 17.924998 35.839129 38.904283
11189 4 17.924998 53.119742 44.636029
11190 4 17.924998 41.488505 50.368526
11191 4 16.32694 43.231311 20.877574
11192 4 16.32694 31.600652 26.60932
11193 4 16.32694 48.881265 32.341817
11194 4 16.32694 37.250606 38.073563
11195 4 16.32694 54.531219 43.806059
11196 4 16.32694 42.899981 49.537806
11197 4 22.356509 51.038089 25.2503
11198 4 22.356509 39.406852 30.982047
11199 4 22.356509 56.687464 36.713793
11200 4 22.356509 45.056805 42.446289
11201 4 22.356509 33.425568 48.178035
11202 4 22.356509 50.706759 53.910532
11203 4 23.674897 50.977374 23.361481
11204 4 23.674897 39.346715 29.093227
11205 4 23.674897 56.627328 34.825723
11206 4 23.674897 44.996669 40.55747
11207 4 23.674897 33.365431 46.289216
11208 4 23.674897 50.646044 52.021712
11209 4 23.223561 37.532785 25.386127
11210 4 23.223561 54.813976 31.117873
11211 4 23.223561 43.182739 36.85037
11212 4 23.223561 31.551502 42.582116
11213 4 23.223561 48.832693 48.314613
11214 4 23.223561 37.201456 54.046359
11215 4 23.907955 35.880762 23.883026
11216 4 23.907955 53.161375 29.614772
11217 4 23.907955 41.530716 35.347269
11218 4 23.907955 29.899479 41.079015
11219 4 23.907955 47.180092 46.811512
11220 4 23.907955 35.549433 52.543258
11221 4 22.354235 57.687814 21.765327
11222 4 22.354235 46.056577 27.497073
11223 4 22.354235 34.42534 33.228819
11224 4 22.354235 51.706531 38.961316
11225 4 22.354235 40.075294 44.693062
11226 4 22.354235 57.356485 50.425558
11227 4 23.130716 55.946164 23.103334
11228 4 23.130716 44.315505 28.835831
11229 4 23.130716 32.684268 34.567577
11230 4 23.130716 49.964881 40.300074
11231 4 23.130716 38.334222 46.03182
11232 4 23.130716 55.614835 51.764316
11233 4 23.087136 40.995269 22.19457
11234 4 23.087136 29.36461 27.927066
11235 4 23.087136 46.645222 33.658813
11236 4 23.087136 35.013985 39.391309
11237 4 23.087136 52.295176 45.123055
11238 4 23.087136 40.663939 50.854801
11239 4 22.804814 43.325564 22.102268
11240 4 22.804814 31.694905 27.834764
11241 4 22.804814 48.975517 33.56651
11242 4 22.804814 37.34428 39.299007
11243 4 22.804814 54.625471 45.030753
11244 4 22.804814 42.994234 50.762499
11245 2 15.890383 51.268227 23.231657
11246 2 15.890383 39.637568 28.963403
11247 2 15.890383 56.918181 34.6959
11248 2 15.890383 45.287522 40.427646
11249 2 15.890383 33.656285 46.160143
11250 2 15.890383 50.936897 51.891889
11251 2 15.486037 49.938282 25.21428
11252 2 15.486037 38.307045 30.946777
11253 2 15.486037 55.588236 36.678523
11254 2 15.486037 43.956999 42.410269
11255 2 15.486037 32.325761 48.142765
11256 2 15.486037 49.606952 53.874512
11257 2 17.852238 51.701905 25.401886
11258 2 17.852238 40.070668 31.134383
11259 2 17.852238 57.35128 36.866129
11260 2 17.852238 45.720621 42.598626
11261 2 17.852238 34.089384 48.330372
11262 2 17.852238 51.370575 54.062868
11263 2 17.146622 52.506233 23.404255
11264 2 17.146622 40.875574 29.136001
11265 2 17.146622 0.332486 34.867747
11266 2 17.146622 46.524949 40.600244
11267 2 17.146622 34.89429 46.33199
11268 2 17.146622 52.174903 52.064487
11269 2 16.890448 49.798927 26.381941
11270 2 16.890448 38.16769 32.114438
11271 2 16.890448 55.448302 37.846184
11272 2 16.890448 43.817643 43.57793
11273 2 16.890448 32.186406 49.310427
11274 2 16.890448 49.467597 55.042173
11275 2 17.26713 36.638253 23.069565
11276 2 17.26713 53.919444 28.801312
11277 2 17.26713 42.288207 34.533808
11278 2 17.26713 30.656969 40.265554
11279 2 17.26713 47.93816 45.9973
11280 2 17.26713 36.306923 51.729797
11281 2 17.893544 37.993062 24.709244
11282 2 17.893544 55.274253 30.441741
11283 2 17.893544 43.643016 36.173487
11284 2 17.893544 32.011779 41.905983
11285 2 17.893544 49.29297 47.637729
11286 2 17.893544 37.661732 53.370226
11287 2 16.011649 36.090084 25.667537
11288 2 16.011649 53.371275 31.399283
11289 2 16.011649 41.740038 37.131029
11290 2 16.011649 30.109379 42.863526
11291 2 16.011649 47.389992 48.595272
11292 2 16.011649 35.758754 54.327768
11293 2 16.136325 35.365553 23.383243
11294 2 16.136325 52.646744 29.11574
11295 2 16.136325 41.015507 34.847486
11296 2 16.136325 29.384848 40.579982
11297 2 16.136325 46.665461 46.311728
11298 2 16.136325 35.034223 52.043475
11299 2 17.400144 37.799931 26.287388
11300 2 17.400144 55.081122 32.019134
11301 2 17.400144 43.449885 37.75163
11302 2 17.400144 31.819226 43.483377
11303 2 17.400144 49.099838 49.215123
11304 2 17.400144 37.468601 54.947619
11305 2 16.34172 55.32456 20.858063
11306 2 16.34172 43.693322 26.590559
11307 2 16.34172 32.062085 32.322306
11308 2 16.34172 49.343276 38.054802
11309 2 16.34172 37.712039 43.786548
11310 2 16.34172 54.99323 49.518294
11311 2 15.513701 56.708859 20.126399
11312 2 15.513701 45.077622 25.858895
11313 2 15.513701 33.446963 31.590641
11314 2 15.513701 50.727576 37.323138
11315 2 15.513701 39.096917 43.054884
11316 2 15.513701 56.377529 48.78663
11317 2 16.721433 0.388575 21.55971
11318 2 16.721433 46.581038 27.291456
11319 2 16.721433 34.950379 33.023203
11320 2 16.721433 52.230992 38.755699
11321 2 16.721433 40.599754 44.487445
11322 2 16.721433 0.057245 50.219942
11323 2 17.566884 55.707931 22.890964
11324 2 17.566884 44.077272 28.62271
11325 2 17.566884 32.446035 34.354456
11326 2 17.566884 49.727226 40.086953
11327 2 17.566884 38.095988 45.818699
11328 2 17.566884 55.376601 51.551196
11329 2 17.879144 57.376145 23.309701
11330 2 17.879144 45.744907 29.042198
11331 2 17.879144 34.114248 34.773944
11332 2 17.879144 51.394861 40.506441
11333 2 17.879144 39.763624 46.238187
11334 2 17.879144 57.044815 51.969933
11335 2 18.735585 42.277798 21.366851
11336 2 18.735585 30.646561 27.098597
11337 2 18.735585 47.927752 32.831094
11338 2 18.735585 36.296515 38.56284
11339 2 18.735585 53.577127 44.294586
11340 2 18.735585 41.946468 50.027083
11341 2 15.475047 43.730908 21.078688
11342 2 15.475047 32.099671 26.810434
11343 2 15.475047 49.380862 32.542931
11344 2 15.475047 37.749624 38.274677
11345 2 15.475047 55.030237 44.007173
11346 2 15.475047 43.399578 49.738919
11347 2 15.893036 41.729051 22.21333
11348 2 15.893036 30.097814 27.945827
11349 2 15.893036 47.378427 33.677573
11350 2 15.893036 35.747768 39.409319
11351 2 15.893036 53.028381 45.141816
11352 2 15.893036 41.397722 50.873562
11353 2 16.953734 43.824004 20.346273
11354 2 16.953734 32.192767 26.078019
11355 2 16.953734 49.473958 31.810516
11356 2 16.953734 37.84272 37.542262
11357 2 16.953734 55.123333 43.274008
11358 2 16.953734 43.492674 49.006505
11359 2 18.140624 41.167005 22.42495
11360 2 18.140624 29.535768 28.156696
11361 2 18.140624 46.816959 33.889193
11362 2 18.140624 35.185721 39.620939
11363 2 18.140624 52.466334 45.353436
11364 2 18.140624 40.835675 51.085182
11365 2 21.444741 51.287887 25.542216
11366 2 21.444741 39.657228 31.273962
11367 2 21.444741 56.937841 37.006458
11368 2 21.444741 45.306604 42.738205
11369 2 21.444741 33.675945 48.470701
11370 2 21.444741 50.956557 54.202447
11371 2 22.791551 50.414171 25.845387
11372 2 22.791551 38.783512 31.577134
11373 2 22.791551 56.064125 37.30963
11374 2 22.791551 44.432888 43.041376
11375 2 22.791551 32.802229 48.773873
11376 2 22.791551 50.082841 54.505619
11377 2 24.42902 50.393355 23.687916
11378 2 24.42902 38.762696 29.420412
11379 2 24.42902 56.043308 35.152158
11380 2 24.42902 44.412071 40.884655
11381 2 24.42902 32.781412 46.616401
11382 2 24.42902 50.062025 52.348147
11383 2 21.908962 51.995649 23.609121
11384 2 21.908962 40.36499 29.340867
11385 2 21.908962 57.645603 35.073364
11386 2 21.908962 46.014366 40.80511
11387 2 21.908962 34.383707 46.537606
11388 2 21.908962 51.664319 52.269353
11389 2 23.620706 51.387344 22.393432
11390 2 23.620706 39.756685 28.125929
11391 2 23.620706 57.037298 33.857675
11392 2 23.620706 45.40606 39.590172
11393 2 23.620706 33.775401 45.321918
11394 2 23.620706 51.056014 51.054414
11395 2 22.459585 38.111022 25.56773
11396 2 22.459585 55.392213 31.300227
11397 2 22.459585 43.760976 37.031973
11398 2 22.459585 32.130317 42.763719
11399 2 22.459585 49.41093 48.496216
11400 2 22.459585 37.779693 54.227962
11401 2 24.186488 37.736903 25.74483
11402 2 24.186488 55.018094 31.476577
11403 2 24.186488 43.386857 37.209073
11404 2 24.186488 31.756198 42.940819
11405 2 24.186488 49.036811 48.673316
11406 2 24.186488 37.405573 54.405062
11407 2 24.858756 35.941477 24.287505
11408 2 24.858756 53.222668 30.019251
11409 2 24.858756 41.591431 35.751748
11410 2 24.858756 29.960194 41.483494
11411 2 24.858756 47.241385 47.215991
11412 2 24.858756 35.610147 52.947737
11413 2 22.015828 36.591416 23.946062
11414 2 22.015828 53.872028 29.677808
11415 2 22.015828 42.241369 35.410304
11416 2 22.015828 30.610132 41.142051
11417 2 22.015828 47.890745 46.873797
11418 2 22.015828 36.260086 52.606293
11419 2 23.624117 35.208851 23.197888
11420 2 23.624117 52.490042 28.929634
11421 2 23.624117 40.858805 34.662131
11422 2 23.624117 29.228146 40.393877
11423 2 23.624117 46.508758 46.126373
11424 2 23.624117 34.877521 51.85812
11425 2 23.85907 55.206599 23.06056
11426 2 23.85907 43.575362 28.792306
11427 2 23.85907 31.944703 34.524053
11428 2 23.85907 49.225316 40.256549
11429 2 23.85907 37.594657 45.988295
11430 2 23.85907 54.87527 51.720792
11431 2 22.833615 56.299467 24.040615
11432 2 22.833615 44.668808 29.773112
11433 2 22.833615 33.037571 35.504858
11434 2 22.833615 50.318184 41.237355
11435 2 22.833615 38.687525 46.969101
11436 2 22.833615 55.968137 52.701597
11437 2 22.178021 0.201805 20.81754
11438 2 22.178021 46.394267 26.549286
11439 2 22.178021 34.763608 32.281783
11440 2 22.178021 52.044221 38.013529
11441 2 22.178021 40.412984 43.746025
11442 2 22.178021 57.694175 49.477772
11443 2 22.073429 0.493236 22.610305
11444 2 22.073429 46.685699 28.342802
11445 2 22.073429 35.05504 34.074548
11446 2 22.073429 52.335653 39.807045
11447 2 22.073429 40.704415 45.538791
11448 2 22.073429 0.161906 51.270537
11449 2 23.119348 55.950212 21.08169
11450 2 23.119348 44.318975 26.814186
11451 2 23.119348 32.687738 32.545932
11452 2 23.119348 49.968929 38.278429
11453 2 23.119348 38.337691 44.010175
11454 2 23.119348 55.618882 49.741921
11455 2 23.602517 40.175329 21.691785
11456 2 23.602517 28.544091 27.423531
11457 2 23.602517 45.825282 33.155277
11458 2 23.602517 34.194045 38.887774
11459 2 23.602517 51.475236 44.61952
11460 2 23.602517 39.843999 50.352017
11461 2 23.184528 44.155334 21.765327
11462 2 23.184528 32.524675 27.497823
11463 2 23.184528 49.805288 33.229569
11464 2 23.184528 38.174629 38.961316
11465 2 23.184528 55.455241 44.693812
11466 2 23.184528 43.824004 50.425558
11467 2 22.701738 40.746627 23.114591
11468 2 22.701738 29.115389 28.846337
11469 2 22.701738 46.396002 34.578083
11470 2 22.701738 34.765343 40.31058
11471 2 22.701738 52.045956 46.042326
11472 2 22.701738 40.414719 51.774822
11473 2 22.130651 43.329033 22.866951
11474 2 22.130651 31.697796 28.599447
11475 2 22.130651 48.978987 34.331193
11476 2 22.130651 37.34775 40.06369
11477 2 22.130651 54.628941 45.795436
11478 2 22.130651 42.997703 51.527182
11479 2 23.579779 42.181233 20.574402
11480 2 23.579779 30.550574 26.306899
11481 2 23.579779 47.831186 32.038645
11482 2 23.579779 36.199949 37.771142
11483 2 23.579779 53.48114 43.502888
11484 2 23.579779 41.849903 49.235384
11485 6 13.576857 32.36566 22.968258
11486 6 13.576857 49.646272 28.700004
11487 6 13.576857 38.015035 34.432501
11488 6 13.576857 55.296226 40.164247
11489 6 13.576857 43.664989 45.896743
11490 6 13.576857 32.033752 51.62849
11491 6 13.418074 46.601276 23.180628
11492 6 13.418074 34.970039 28.912374
11493 6 13.418074 52.25123 34.644871
11494 6 13.418074 40.619993 40.376617
11495 6 13.418074 28.988756 46.109114
11496 6 13.418074 46.269947 51.84086
11497 6 13.817115 38.180411 20.407057
11498 6 13.817115 55.461602 26.139554
11499 6 13.817115 43.830365 31.8713
11500 6 13.817115 32.199127 37.603797
11501 6 13.817115 49.480318 43.335543
11502 6 13.817115 37.849081 49.067289
11503 6 14.002803 52.642696 19.999577
11504 6 14.002803 41.012037 25.732073
11505 6 14.002803 29.3808 31.463819
11506 6 14.002803 46.661413 37.196316
11507 6 14.002803 35.030754 42.928062
11508 6 14.002803 52.311367 48.660559
11509 6 20.117637 52.31021 20.602918
11510 6 20.117637 40.679551 26.335415
11511 6 20.117637 29.048314 32.067161
11512 6 20.117637 46.329505 37.799658
11513 6 20.117637 34.698268 43.531404
11514 6 20.117637 51.97888 49.2639
11515 6 20.005466 38.117961 20.491855
11516 6 20.005466 55.398574 26.223602
11517 6 20.005466 43.767915 31.956098
11518 6 20.005466 32.136678 37.687844
11519 6 20.005466 49.41729 43.420341
11520 6 20.005466 37.786631 49.152087
11521 6 19.612868 46.502398 23.405756
11522 6 19.612868 34.871161 29.137502
11523 6 19.612868 52.152352 34.869998
11524 6 19.612868 40.521114 40.601745
11525 6 19.612868 57.802305 46.334241
11526 6 19.612868 46.171068 52.065987
11527 6 19.921717 32.130317 23.356978
11528 6 19.921717 49.41093 29.088724
11529 6 19.921717 37.780271 34.821221
11530 6 19.921717 55.060884 40.552967
11531 6 19.921717 43.430225 46.285464
11532 6 19.921717 31.798987 52.01721
11533 3 14.091479 35.334328 21.652013
11534 3 14.091479 52.614941 27.383759
11535 3 14.091479 40.984282 33.116255
11536 3 14.091479 29.353045 38.848001
11537 3 14.091479 46.634236 44.580498
11538 3 14.091479 35.002999 50.312244
11539 3 13.443464 31.274526 20.241214
11540 3 13.443464 48.555139 25.97371
11541 3 13.443464 36.923902 31.705456
11542 3 13.443464 54.205093 37.437202
11543 3 13.443464 42.573856 43.169699
11544 3 13.443464 30.943197 48.901445
11545 3 16.527787 46.640596 23.164869
11546 3 16.527787 35.009359 28.896615
11547 3 16.527787 52.29055 34.629112
11548 3 16.527787 40.659313 40.360858
11549 3 16.527787 29.028076 46.092604
11550 3 16.527787 46.309267 51.825101
11551 3 13.881537 49.782158 21.625748
11552 3 13.881537 38.150921 27.357494
11553 3 13.881537 55.432112 33.08924
11554 3 13.881537 43.800875 38.821737
11555 3 13.881537 32.169637 44.553483
11556 3 13.881537 49.450828 50.285979
11557 3 13.754587 45.492796 20.2172
11558 3 13.754587 33.862137 25.949697
11559 3 13.754587 51.14275 31.681443
11560 3 13.754587 39.511512 37.413189
11561 3 13.754587 56.792703 43.145685
11562 3 13.754587 45.161466 48.877432
11563 3 13.831894 54.007336 22.788156
11564 3 13.831894 42.376099 28.520653
11565 3 13.831894 30.744861 34.252399
11566 3 13.831894 48.026052 39.984895
11567 3 13.831894 36.394815 45.716641
11568 3 13.831894 53.676006 51.449138
11569 3 16.622526 32.029126 23.284937
11570 3 16.622526 49.310317 29.017434
11571 3 16.622526 37.679079 34.74918
11572 3 16.622526 54.96027 40.481677
11573 3 16.622526 43.329033 46.213423
11574 3 16.622526 31.697796 51.945919
11575 3 13.333946 29.145458 24.315271
11576 3 13.333946 46.42607 30.047017
11577 3 13.333946 34.794833 35.779514
11578 3 13.333946 52.076024 41.51126
11579 3 13.333946 40.444787 47.243756
11580 3 13.333946 57.725978 52.975502
11581 3 13.596562 39.985089 22.849691
11582 3 13.596562 57.26628 28.581437
11583 3 13.596562 45.635042 34.313934
11584 3 13.596562 34.004383 40.04568
11585 3 13.596562 51.284996 45.778176
11586 3 13.596562 39.653759 51.509922
11587 3 16.946533 52.870522 20.216449
11588 3 16.946533 41.239285 25.948196
11589 3 16.946533 29.608047 31.680692
11590 3 16.946533 46.889238 37.412438
11591 3 16.946533 35.258001 43.144935
11592 3 16.946533 52.539192 48.876681
11593 3 16.843078 38.409971 20.795027
11594 3 16.843078 55.690584 26.526773
11595 3 16.843078 44.059346 32.258519
11596 3 16.843078 32.428687 37.991016
11597 3 16.843078 49.7093 43.722762
11598 3 16.843078 38.078641 49.455259
11599 3 13.562835 43.811861 24.443594
11600 3 13.562835 32.181202 30.17609
11601 3 13.562835 49.461815 35.907836
11602 3 13.562835 37.830577 41.640333
11603 3 13.562835 55.111768 47.372079
11604 3 13.562835 43.480531 53.104576
11605 3 19.159636 49.915731 22.585541
11606 3 19.159636 38.285072 28.317287
11607 3 19.159636 55.565685 34.049784
11608 3 19.159636 43.935025 39.78153
11609 3 19.159636 32.303788 45.513276
11610 3 19.159636 49.584401 51.245773
11611 3 19.720112 53.915974 23.441776
11612 3 19.720112 42.284737 29.173522
11613 3 19.720112 30.654078 34.906019
11614 3 19.720112 47.934691 40.637765
11615 3 19.720112 36.303454 46.370262
11616 3 19.720112 53.584645 52.102008
11617 3 19.491602 31.049014 20.526375
11618 3 19.491602 48.330205 26.258872
11619 3 19.491602 36.698968 31.990618
11620 3 19.491602 53.980159 37.722364
11621 3 19.491602 42.348921 43.45486
11622 3 19.491602 30.717684 49.186607
11623 3 23.133748 37.87568 20.878324
11624 3 23.133748 55.156871 26.610821
11625 3 23.133748 43.525634 32.342567
11626 3 23.133748 31.894396 38.075064
11627 3 23.133748 49.175587 43.80681
11628 3 23.133748 37.54435 49.539306
11629 3 19.546172 35.237763 21.956685
11630 3 19.546172 52.518954 27.689182
11631 3 19.546172 40.887717 33.420928
11632 3 19.546172 29.256479 39.153424
11633 3 19.546172 46.53767 44.885171
11634 3 19.546172 34.906433 50.616917
11635 3 19.878895 45.462149 20.479098
11636 3 19.878895 33.830912 26.210844
11637 3 19.878895 51.112103 31.943341
11638 3 19.878895 39.480866 37.675087
11639 3 19.878895 56.761479 43.406833
11640 3 19.878895 45.13082 49.13933
11641 3 20.046393 39.137971 23.578353
11642 3 20.046393 56.419162 29.31085
11643 3 20.046393 44.787925 35.042596
11644 3 20.046393 33.156688 40.774342
11645 3 20.046393 50.437879 46.506839
11646 3 20.046393 38.806642 52.238585
11647 3 22.732055 46.764917 23.502561
11648 3 22.732055 35.13368 29.234307
11649 3 22.732055 52.414293 34.966803
11650 3 22.732055 40.783634 40.698549
11651 3 22.732055 29.152397 46.431046
11652 3 22.732055 46.433588 52.162792
11653 3 22.830962 31.907118 22.856445
11654 3 22.830962 49.188309 28.588941
11655 3 22.830962 37.557071 34.320687
11656 3 22.830962 54.837684 40.053184
11657 3 22.830962 43.207025 45.78493
11658 3 22.830962 31.575788 51.517427
11659 3 19.999024 43.303012 24.393315
11660 3 19.999024 31.671775 30.125812
11661 3 19.999024 48.952966 35.857558
11662 3 19.999024 37.321729 41.589304
11663 3 19.999024 54.602342 47.321801
11664 3 19.999024 42.971683 53.053547
11665 3 23.020061 52.761813 20.235961
11666 3 23.020061 41.130576 25.968457
11667 3 23.020061 29.499917 31.700203
11668 3 23.020061 46.78053 37.4327
11669 3 23.020061 35.149871 43.164446
11670 3 23.020061 52.430484 48.896943
11671 3 20.146438 29.454815 24.833064
11672 3 20.146438 46.736006 30.565561
11673 3 20.146438 35.104768 36.297307
11674 3 20.146438 52.385959 42.029053
11675 3 20.146438 40.754722 47.76155
11676 3 20.146438 29.123485 53.493296
11677 1 29.606316 51.289622 24.94938
11678 1 29.606316 39.658963 30.681126
11679 1 29.606316 56.939576 36.413623
11680 1 29.606316 45.308338 42.145369
11681 1 29.606316 33.677679 47.877115
11682 1 29.606316 50.958292 53.609612
11683 1 29.208034 36.572912 24.950881
11684 1 29.208034 53.853525 30.682627
11685 1 29.208034 42.222866 36.414373
11686 1 29.208034 30.591628 42.14687
11687 1 29.208034 47.872241 47.878616
11688 1 29.208034 36.241582 53.611112
11689 1 29.456629 57.12519 21.627999
11690 1 29.456629 45.493952 27.360495
11691 1 29.456629 33.863293 33.092242
11692 1 29.456629 51.143906 38.824738
11693 1 29.456629 39.512669 44.556484
11694 1 29.456629 56.79386 50.288981
11695 1 29.30732 42.258716 21.660267
11696 1 29.30732 30.627479 27.392013
11697 1 29.30732 47.90867 33.12451
11698 1 29.30732 36.277433 38.856256
11699 1 29.30732 53.558046 44.588753
11700 1 29.30732 41.927387 50.320499
11701 1 35.228887 51.317377 24.020354
11702 1 35.228887 39.68614 29.7521
11703 1 35.228887 56.966753 35.483846
11704 1 35.228887 45.336094 41.216343
11705 1 35.228887 33.704856 46.948089
11706 1 35.228887 50.986047 52.680585
11707 1 35.619211 36.666008 24.436089
11708 1 35.619211 53.946621 30.167835
11709 1 35.619211 42.315962 35.900332
11710 1 35.619211 30.684725 41.632078
11711 1 35.619211 47.965337 47.364575
11712 1 35.619211 36.334678 53.096321
11713 1 35.504388 56.537701 21.944678
11714 1 35.504388 44.907042 27.676424
11715 1 35.504388 33.275805 33.408921
11716 1 35.504388 50.556996 39.140667
11717 1 35.504388 38.925758 44.872413
11718 1 35.504388 56.206371 50.60491
11719 1 35.803384 42.153477 21.61224
11720 1 35.803384 30.52224 27.343986
11721 1 35.803384 47.803431 33.075732
11722 1 35.803384 36.172194 38.808229
11723 1 35.803384 53.452807 44.539975
11724 1 35.803384 41.822147 50.272472
11725 4 29.272835 51.746429 23.746449
11726 4 29.272835 40.115192 29.478195
11727 4 29.272835 57.396383 35.210691
11728 4 29.272835 45.765146 40.942438
11729 4 29.272835 34.134487 46.674184
11730 4 29.272835 51.415099 52.40668
11731 4 29.048114 50.267877 25.530959
11732 4 29.048114 38.63664 31.262705
11733 4 29.048114 55.917253 36.995202
11734 4 29.048114 44.286594 42.726948
11735 4 29.048114 32.655356 48.458694
11736 4 29.048114 49.936547 54.191191
11737 4 29.380838 36.073893 23.753203
11738 4 29.380838 53.355084 29.484949
11739 4 29.380838 41.723847 35.217445
11740 4 29.380838 30.09261 40.949191
11741 4 29.380838 47.373801 46.681688
11742 4 29.380838 35.742564 52.413434
11743 4 29.781773 37.739794 25.323092
11744 4 29.781773 55.020407 31.055588
11745 4 29.781773 43.38917 36.787334
11746 4 29.781773 31.758511 42.519081
11747 4 29.781773 49.039123 48.251577
11748 4 29.781773 37.408464 53.983323
11749 4 30.122455 56.678213 22.660584
11750 4 30.122455 45.046975 28.39308
11751 4 30.122455 33.415738 34.124826
11752 4 30.122455 50.696929 39.857323
11753 4 30.122455 39.065692 45.589069
11754 4 30.122455 56.346883 51.321566
11755 4 28.855226 56.357869 20.740246
11756 4 28.855226 44.72721 26.471992
11757 4 28.855226 33.095973 32.204489
11758 4 28.855226 50.377164 37.936235
11759 4 28.855226 38.745927 43.668732
11760 4 28.855226 56.026539 49.400478
11761 4 30.557117 41.819835 21.708294
11762 4 30.557117 30.189176 27.440041
11763 4 30.557117 47.469788 33.172537
11764 4 30.557117 35.839129 38.904283
11765 4 30.557117 53.119742 44.636029
11766 4 30.557117 41.488505 50.368526
11767 4 28.958681 43.231311 20.877574
11768 4 28.958681 31.600652 26.60932
11769 4 28.958681 48.881265 32.341817
11770 4 28.958681 37.250606 38.073563
11771 4 28.958681 54.531219 43.806059
11772 4 28.958681 42.899981 49.537806
11773 4 34.988629 51.038089 25.2503
11774 4 34.988629 39.406852 30.982047
11775 4 34.988629 56.687464 36.713793
11776 4 34.988629 45.056805 42.446289
11777 4 34.988629 33.425568 48.178035
11778 4 34.988629 50.706759 53.910532
11779 4 36.307016 50.977374 23.361481
11780 4 36.307016 39.346715 29.093227
11781 4 36.307016 56.627328 34.825723
11782 4 36.307016 44.996669 40.55747
11783 4 36.307016 33.365431 46.289216
11784 4 36.307016 50.646044 52.021712
11785 4 35.85568 37.532785 25.386127
11786 4 35.85568 54.813976 31.117873
11787 4 35.85568 43.182739 36.85037
11788 4 35.85568 31.551502 42.582116
11789 4 35.85568 48.832693 48.314613
11790 4 35.85568 37.201456 54.046359
11791 4 36.540074 35.880762 23.883026
11792 4 36.540074 53.161375 29.614772
11793 4 36.540074 41.530716 35.347269
11794 4 36.540074 29.899479 41.079015
11795 4 36.540074 47.180092 46.811512
11796 4 36.540074 35.549433 52.543258
11797 4 34.986355 57.687814 21.765327
11798 4 34.986355 46.056577 27.497073
11799 4 34.986355 34.42534 33.228819
11800 4 34.986355 51.706531 38.961316
11801 4 34.986355 40.075294 44.693062
11802 4 34.986355 57.356485 50.425558
11803 4 35.762836 55.946164 23.103334
11804 4 35.762836 44.315505 28.835831
11805 4 35.762836 32.684268 34.567577
11806 4 35.762836 49.964881 40.300074
11807 4 35.762836 38.334222 46.03182
11808 4 35.762836 55.614835 51.764316
11809 4 35.719256 40.995269 22.19457
11810 4 35.719256 29.36461 27.927066
11811 4 35.719256 46.645222 33.658813
11812 4 35.719256 35.013985 39.391309
11813 4 35.719256 52.295176 45.123055
11814 4 35.719256 40.663939 50.854801
11815 4 35.436933 43.325564 22.102268
11816 4 35.436933 31.694905 27.834764
11817 4 35.436933 48.975517 33.56651
11818 4 35.436933 37.34428 39.299007
11819 4 35.436933 54.625471 45.030753
11820 4 35.436933 42.994234 50.762499
11821 2 28.522502 51.268227 23.231657
11822 2 28.522502 39.637568 28.963403
11823 2 28.522502 56.918181 34.6959
11824 2 28.522502 45.287522 40.427646
11825 2 28.522502 33.656285 46.160143
11826 2 28.522502 50.936897 51.891889
11827 2 28.118156 49.938282 25.21428
11828 2 28.118156 38.307045 30.946777
11829 2 28.118156 55.588236 36.678523
11830 2 28.118156 43.956999 42.410269
11831 2 28.118156 32.325761 48.142765
11832 2 28.118156 49.606952 53.874512
11833 2 30.483979 51.701905 25.401886
11834 2 30.483979 40.070668 31.134383
11835 2 30.483979 57.35128 36.866129
11836 2 30.483979 45.720621 42.598626
11837 2 30.483979 34.089384 48.330372
11838 2 30.483979 51.370575 54.062868
11839 2 29.778362 52.506233 23.404255
11840 2 29.778362 40.875574 29.136001
11841 2 29.778362 0.332486 34.867747
11842 2 29.778362 46.524949 40.600244
11843 2 29.778362 34.89429 46.33199
11844 2 29.778362 52.174903 52.064487
11845 2 29.522567 49.798927 26.381941
11846 2 29.522567 38.16769 32.114438
11847 2 29.522567 55.448302 37.846184
11848 2 29.522567 43.817643 43.57793
11849 2 29.522567 32.186406 49.310427
11850 2 29.522567 49.467597 55.042173
11851 2 29.89887 36.638253 23.069565
11852 2 29.89887 53.919444 28.801312
11853 2 29.89887 42.288207 34.533808
11854 2 29.89887 30.656969 40.265554
11855 2 29.89887 47.93816 45.9973
11856 2 29.89887 36.306923 51.729797
11857 2 30.525664 37.993062 24.709244
11858 2 30.525664 55.274253 30.441741
11859 2 30.525664 43.643016 36.173487
11860 2 30.525664 32.011779 41.905983
11861 2 30.525664 49.29297 47.637729
11862 2 30.525664 37.661732 53.370226
11863 2 28.643768 36.090084 25.667537
11864 2 28.643768 53.371275 31.399283
11865 2 28.643768 41.740038 37.131029
11866 2 28.643768 30.109379 42.863526
11867 2 28.643768 47.389992 48.595272
11868 2 28.643768 35.758754 54.327768
11869 2 28.768066 35.365553 23.383243
11870 2 28.768066 52.646744 29.11574
11871 2 28.768066 41.015507 34.847486
11872 2 28.768066 29.384848 40.579982
11873 2 28.768066 46.665461 46.311728
11874 2 28.768066 35.034223 52.043475
11875 2 30.032263 37.799931 26.287388
11876 2 30.032263 55.081122 32.019134
11877 2 30.032263 43.449885 37.75163
11878 2 30.032263 31.819226 43.483377
11879 2 30.032263 49.099838 49.215123
11880 2 30.032263 37.468601 54.947619
11881 2 28.97346 55.32456 20.858063
11882 2 28.97346 43.693322 26.590559
11883 2 28.97346 32.062085 32.322306
11884 2 28.97346 49.343276 38.054802
11885 2 28.97346 37.712039 43.786548
11886 2 28.97346 54.99323 49.518294
11887 2 28.14582 56.708859 20.126399
11888 2 28.14582 45.077622 25.858895
11889 2 28.14582 33.446963 31.590641
11890 2 28.14582 50.727576 37.323138
11891 2 28.14582 39.096917 43.054884
11892 2 28.14582 56.377529 48.78663
11893 2 29.353174 0.388575 21.55971
11894 2 29.353174 46.581038 27.291456
11895 2 29.353174 34.950379 33.023203
11896 2 29.353174 52.230992 38.755699
11897 2 29.353174 40.599754 44.487445
11898 2 29.353174 0.057245 50.219942
11899 2 30.198625 55.707931 22.890964
11900 2 30.198625 44.077272 28.62271
11901 2 30.198625 32.446035 34.354456
11902 2 30.198625 49.727226 40.086953
11903 2 30.198625 38.095988 45.818699
11904 2 30.198625 55.376601 51.551196
11905 2 30.510884 57.376145 23.309701
11906 2 30.510884 45.744907 29.042198
11907 2 30.510884 34.114248 34.773944
11908 2 30.510884 51.394861 40.506441
11909 2 30.510884 39.763624 46.238187
11910 2 30.510884 57.044815 51.969933
11911 2 31.367325 42.277798 21.366851
11912 2 31.367325 30.646561 27.098597
11913 2 31.367325 47.927752 32.831094
11914 2 31.367325 36.296515 38.56284
11915 2 31.367325 53.577127 44.294586
11916 2 31.367325 41.946468 50.027083
11917 2 28.106788 43.730908 21.078688
11918 2 28.106788 32.099671 26.810434
11919 2 28.106788 49.380862 32.542931
11920 2 28.106788 37.749624 38.274677
11921 2 28.106788 55.030237 44.007173
11922 2 28.106788 43.399578 49.738919
11923 2 28.524776 41.729051 22.21333
11924 2 28.524776 30.097814 27.945827
11925 2 28.524776 47.378427 33.677573
11926 2 28.524776 35.747768 39.409319
11927 2 28.524776 53.028381 45.141816
11928 2 28.524776 41.397722 50.873562
11929 2 29.585853 43.824004 20.346273
11930 2 29.585853 32.192767 26.078019
11931 2 29.585853 49.473958 31.810516
11932 2 29.585853 37.84272 37.542262
11933 2 29.585853 55.123333 43.274008
11934 2 29.585853 43.492674 49.006505
11935 2 30.772364 41.167005 22.42495
11936 2 30.772364 29.535768 28.156696
11937 2 30.772364 46.816959 33.889193
11938 2 30.772364 35.185721 39.620939
11939 2 30.772364 52.466334 45.353436
11940 2 30.772364 40.835675 51.085182
11941 2 34.076481 51.287887 25.542216
11942 2 34.076481 39.657228 31.273962
11943 2 34.076481 56.937841 37.006458
11944 2 34.076481 45.306604 42.738205
11945 2 34.076481 33.675945 48.470701
11946 2 34.076481 50.956557 54.202447
11947 2 35.423291 50.414171 25.845387
11948 2 35.423291 38.783512 31.577134
11949 2 35.423291 56.064125 37.30963
11950 2 35.423291 44.432888 43.041376
11951 2 35.423291 32.802229 48.773873
11952 2 35.423291 50.082841 54.505619
11953 2 37.06076 50.393355 23.687916
11954 2 37.06076 38.762696 29.420412
11955 2 37.06076 56.043308 35.152158
11956 2 37.06076 44.412071 40.884655
11957 2 37.06076 32.781412 46.616401
11958 2 37.06076 50.062025 52.348147
11959 2 34.540703 51.995649 23.609121
11960 2 34.540703 40.36499 29.340867
11961 2 34.540703 57.645603 35.073364
11962 2 34.540703 46.014366 40.80511
11963 2 34.540703 34.383707 46.537606
11964 2 34.540703 51.664319 52.269353
11965 2 36.252826 51.387344 22.393432
11966 2 36.252826 39.756685 28.125929
11967 2 36.252826 57.037298 33.857675
11968 2 36.252826 45.40606 39.590172
11969 2 36.252826 33.775401 45.321918
11970 2 36.252826 51.056014 51.054414
11971 2 35.091705 38.111022 25.56773
11972 2 35.091705 55.392213 31.300227
11973 2 35.091705 43.760976 37.031973
11974 2 35.091705 32.130317 42.763719
11975 2 35.091705 49.41093 48.496216
11976 2 35.091705 37.779693 54.227962
11977 2 36.818228 37.736903 25.74483
11978 2 36.818228 55.018094 31.476577
11979 2 36.818228 43.386857 37.209073
11980 2 36.818228 31.756198 42.940819
11981 2 36.818228 49.036811 48.673316
11982 2 36.818228 37.405573 54.405062
11983 2 37.490496 35.941477 24.287505
11984 2 37.490496 53.222668 30.019251
11985 2 37.490496 41.591431 35.751748
11986 2 37.490496 29.960194 41.483494
11987 2 37.490496 47.241385 47.215991
11988 2 37.490496 35.610147 52.947737
11989 2 34.647568 36.591416 23.946062
11990 2 34.647568 53.872028 29.677808
11991 2 34.647568 42.241369 35.410304
11992 2 34.647568 30.610132 41.142051
11993 2 34.647568 47.890745 46.873797
11994 2 34.647568 36.260086 52.606293
11995 2 36.256236 35.208851 23.197888
11996 2 36.256236 52.490042 28.929634
11997 2 36.256236 40.858805 34.662131
11998 2 36.256236 29.228146 40.393877
11999 2 36.256236 46.508758 46.126373
12000 2 36.256236 34.877521 51.85812
12001 2 36.491189 55.206599 23.06056
12002 2 36.491189 43.575362 28.792306
12003 2 36.491189 31.944703 34.524053
12004 2 36.491189 49.225316 40.256549
12005 2 36.491189 37.594657 45.988295
12006 2 36.491189 54.87527 51.720792
12007 2 35.465355 56.299467 24.040615
12008 2 35.465355 44.668808 29.773112
12009 2 35.465355 33.037571 35.504858
12010 2 35.465355 50.318184 41.237355
12011 2 35.465355 38.687525 46.969101
12012 2 35.465355 55.968137 52.701597
12013 2 34.81014 0.201805 20.81754
12014 2 34.81014 46.394267 26.549286
12015 2 34.81014 34.763608 32.281783
12016 2 34.81014 52.044221 38.013529
12017 2 34.81014 40.412984 43.746025
12018 2 34.81014 57.694175 49.477772
12019 2 34.705169 0.493236 22.610305
12020 2 34.705169 46.685699 28.342802
12021 2 34.705169 35.05504 34.074548
12022 2 34.705169 52.335653 39.807045
12023 2 34.705169 40.704415 45.538791
12024 2 34.705169 0.161906 51.270537
12025 2 35.751088 55.950212 21.08169
12026 2 35.751088 44.318975 26.814186
12027 2 35.751088 32.687738 32.545932
12028 2 35.751088 49.968929 38.278429
12029 2 35.751088 38.337691 44.010175
12030 2 35.751088 55.618882 49.741921
12031 2 36.234636 40.175329 21.691785
12032 2 36.234636 28.544091 27.423531
12033 2 36.234636 45.825282 33.155277
12034 2 36.234636 34.194045 38.887774
12035 2 36.234636 51.475236 44.61952
12036 2 36.234636 39.843999 50.352017
12037 2 35.816268 44.155334 21.765327
12038 2 35.816268 32.524675 27.497823
12039 2 35.816268 49.805288 33.229569
12040 2 35.816268 38.174629 38.961316
12041 2 35.816268 55.455241 44.693812
12042 2 35.816268 43.824004 50.425558
12043 2 35.333478 40.746627 23.114591
12044 2 35.333478 29.115389 28.846337
12045 2 35.333478 46.396002 34.578083
12046 2 35.333478 34.765343 40.31058
12047 2 35.333478 52.045956 46.042326
12048 2 35.333478 40.414719 51.774822
12049 2 34.762392 43.329033 22.866951
12050 2 34.762392 31.697796 28.599447
12051 2 34.762392 48.978987 34.331193
12052 2 34.762392 37.34775 40.06369
12053 2 34.762392 54.628941 45.795436
12054 2 34.762392 42.997703 51.527182
12055 2 36.21152 42.181233 20.574402
12056 2 36.21152 30.550574 26.306899
12057 2 36.21152 47.831186 32.038645
12058 2 36.21152 36.199949 37.771142
12059 2 36.21152 53.48114 43.502888
12060 2 36.21152 41.849903 49.235384
12061 6 26.208976 32.36566 22.968258
12062 6 26.208976 49.646272 28.700004
12063 6 26.208976 38.015035 34.432501
12064 6 26.208976 55.296226 40.164247
12065 6 26.208976 43.664989 45.896743
12066 6 26.208976 32.033752 51.62849
12067 6 26.049814 46.601276 23.180628
12068 6 26.049814 34.970039 28.912374
12069 6 26.049814 52.25123 34.644871
12070 6 26.049814 40.619993 40.376617
12071 6 26.049814 28.988756 46.109114
12072 6 26.049814 46.269947 51.84086
12073 6 26.449234 38.180411 20.407057
12074 6 26.449234 55.461602 26.139554
12075 6 26.449234 43.830365 31.8713
12076 6 26.449234 32.199127 37.603797
12077 6 26.449234 49.480318 43.335543
12078 6 26.449234 37.849081 49.067289
12079 6 26.634922 52.642696 19.999577
12080 6 26.634922 41.012037 25.732073
12081 6 26.634922 29.3808 31.463819
12082 6 26.634922 46.661413 37.196316
12083 6 26.634922 35.030754 42.928062
12084 6 26.634922 52.311367 48.660559
12085 6 32.749378 52.31021 20.602918
12086 6 32.749378 40.679551 26.335415
12087 6 32.749378 29.048314 32.067161
12088 6 32.749378 46.329505 37.799658
12089 6 32.749378 34.698268 43.531404
12090 6 32.749378 51.97888 49.2639
12091 6 32.637207 38.117961 20.491855
12092 6 32.637207 55.398574 26.223602
12093 6 32.637207 43.767915 31.956098
12094 6 32.637207 32.136678 37.687844
12095 6 32.637207 49.41729 43.420341
12096 6 32.637207 37.786631 49.152087
12097 6 32.244987 46.502398 23.405756
12098 6 32.244987 34.871161 29.137502
12099 6 32.244987 52.152352 34.869998
12100 6 32.244987 40.521114 40.601745
12101 6 32.244987 57.802305 46.334241
12102 6 32.244987 46.171068 52.065987
12103 6 32.553457 32.130317 23.356978
12104 6 32.553457 49.41093 29.088724
12105 6 32.553457 37.780271 34.821221
12106 6 32.553457 55.060884 40.552967
12107 6 32.553457 43.430225 46.285464
12108 6 32.553457 31.798987 52.01721
12109 3 26.723219 35.334328 21.652013
12110 3 26.723219 52.614941 27.383759
12111 3 26.723219 40.984282 33.116255
12112 3 26.723219 29.353045 38.848001
12113 3 26.723219 46.634236 44.580498
12114 3 26.723219 35.002999 50.312244
12115 3 26.075583 31.274526 20.241214
12116 3 26.075583 48.555139 25.97371
12117 3 26.075583 36.923902 31.705456
12118 3 26.075583 54.205093 37.437202
12119 3 26.075583 42.573856 43.169699
12120 3 26.075583 30.943197 48.901445
12121 3 29.159527 46.640596 23.164869
12122 3 29.159527 35.009359 28.896615
12123 3 29.159527 52.29055 34.629112
12124 3 29.159527 40.659313 40.360858
12125 3 29.159527 29.028076 46.092604
12126 3 29.159527 46.309267 51.825101
12127 3 26.513657 49.782158 21.625748
12128 3 26.513657 38.150921 27.357494
12129 3 26.513657 55.432112 33.08924
12130 3 26.513657 43.800875 38.821737
12131 3 26.513657 32.169637 44.553483
12132 3 26.513657 49.450828 50.285979
12133 3 26.386327 45.492796 20.2172
12134 3 26.386327 33.862137 25.949697
12135 3 26.386327 51.14275 31.681443
12136 3 26.386327 39.511512 37.413189
12137 3 26.386327 56.792703 43.145685
12138 3 26.386327 45.161466 48.877432
12139 3 26.464013 54.007336 22.788156
12140 3 26.464013 42.376099 28.520653
12141 3 26.464013 30.744861 34.252399
12142 3 26.464013 48.026052 39.984895
12143 3 26.464013 36.394815 45.716641
12144 3 26.464013 53.676006 51.449138
12145 3 29.254266 32.029126 23.284937
12146 3 29.254266 49.310317 29.017434
12147 3 29.254266 37.679079 34.74918
12148 3 29.254266 54.96027 40.481677
12149 3 29.254266 43.329033 46.213423
12150 3 29.254266 31.697796 51.945919
12151 3 25.965686 29.145458 24.315271
12152 3 25.965686 46.42607 30.047017
12153 3 25.965686 34.794833 35.779514
12154 3 25.965686 52.076024 41.51126
12155 3 25.965686 40.444787 47.243756
12156 3 25.965686 57.725978 52.975502
12157 3 26.228303 39.985089 22.849691
12158 3 26.228303 57.26628 28.581437
12159 3 26.228303 45.635042 34.313934
12160 3 26.228303 34.004383 40.04568
12161 3 26.228303 51.284996 45.778176
12162 3 26.228303 39.653759 51.509922
12163 3 29.578274 52.870522 20.216449
12164 3 29.578274 41.239285 25.948196
12165 3 29.578274 29.608047 31.680692
12166 3 29.578274 46.889238 37.412438
12167 3 29.578274 35.258001 43.144935
12168 3 29.578274 52.539192 48.876681
12169 3 29.474819 38.409971 20.795027
12170 3 29.474819 55.690584 26.526773
12171 3 29.474819 44.059346 32.258519
12172 3 29.474819 32.428687 37.991016
12173 3 29.474819 49.7093 43.722762
12174 3 29.474819 38.078641 49.455259
12175 3 26.194576 43.811861 24.443594
12176 3 26.194576 32.181202 30.17609
12177 3 26.194576 49.461815 35.907836
12178 3 26.194576 37.830577 41.640333
12179 3 26.194576 55.111768 47.372079
12180 3 26.194576 43.480531 53.104576
12181 3 31.791377 49.915731 22.585541
12182 3 31.791377 38.285072 28.317287
12183 3 31.791377 55.565685 34.049784
12184 3 31.791377 43.935025 39.78153
12185 3 31.791377 32.303788 45.513276
12186 3 31.791377 49.584401 51.245773
12187 3 32.351853 53.915974 23.441776
12188 3 32.351853 42.284737 29.173522
12189 3 32.351853 30.654078 34.906019
12190 3 32.351853 47.934691 40.637765
12191 3 32.351853 36.303454 46.370262
12192 3 32.351853 53.584645 52.102008
12193 3 32.123721 31.049014 20.526375
12194 3 32.123721 48.330205 26.258872
12195 3 32.123721 36.698968 31.990618
12196 3 32.123721 53.980159 37.722364
12197 3 32.123721 42.348921 43.45486
12198 3 32.123721 30.717684 49.186607
12199 3 35.765867 37.87568 20.878324
12200 3 35.765867 55.156871 26.610821
12201 3 35.765867 43.525634 32.342567
12202 3 35.765867 31.894396 38.075064
12203 3 35.765867 49.175587 43.80681
12204 3 35.765867 37.54435 49.539306
12205 3 32.177912 35.237763 21.956685
12206 3 32.177912 52.518954 27.689182
12207 3 32.177912 40.887717 33.420928
12208 3 32.177912 29.256479 39.153424
12209 3 32.177912 46.53767 44.885171
12210 3 32.177912 34.906433 50.616917
12211 3 32.510635 45.462149 20.479098
12212 3 32.510635 33.830912 26.210844
12213 3 32.510635 51.112103 31.943341
12214 3 32.510635 39.480866 37.675087
12215 3 32.510635 56.761479 43.406833
12216 3 32.510635 45.13082 49.13933
12217 3 32.678134 39.137971 23.578353
12218 3 32.678134 56.419162 29.31085
12219 3 32.678134 44.787925 35.042596
12220 3 32.678134 33.156688 40.774342
12221 3 32.678134 50.437879 46.506839
12222 3 32.678134 38.806642 52.238585
12223 3 35.363795 46.764917 23.502561
12224 3 35.363795 35.13368 29.234307
12225 3 35.363795 52.414293 34.966803
12226 3 35.363795 40.783634 40.698549
12227 3 35.363795 29.152397 46.431046
12228 3 35.363795 46.433588 52.162792
12229 3 35.462702 31.907118 22.856445
12230 3 35.462702 49.188309 28.588941
12231 3 35.462702 37.557071 34.320687
12232 3 35.462702 54.837684 40.053184
12233 3 35.462702 43.207025 45.78493
12234 3 35.462702 31.575788 51.517427
12235 3 32.631143 43.303012 24.393315
12236 3 32.631143 31.671775 30.125812
12237 3 32.631143 48.952966 35.857558
12238 3 32.631143 37.321729 41.589304
12239 3 32.631143 54.602342 47.321801
12240 3 32.631143 42.971683 53.053547
12241 3 35.651802 52.761813 20.235961
12242 3 35.651802 41.130576 25.968457
12243 3 35.651802 29.499917 31.700203
12244 3 35.651802 46.78053 37.4327
12245 3 35.651802 35.149871 43.164446
12246 3 35.651802 52.430484 48.896943
12247 3 32.778557 29.454815 24.833064
12248 3 32.778557 46.736006 30.565561
12249 3 32.778557 35.104768 36.297307
12250 3 32.778557 52.385959 42.029053
12251 3 32.778557 40.754722 47.76155
12252 3 32.778557 29.123485 53.493296
